3b_NbBr                                 
   1.0000000000000000     
     6.6084040078918331    3.8153638328701520    0.0000000000000000
    -6.6084040078918331    3.8153638328701520    0.0000000000000000
    -4.4056026719278893    0.0000000000000000   13.7467113416636835
  Nb              I            
     6    16
Direct
  0.0465629616745974   -0.0465629616746114   -0.2531483304439868
  0.0465629616746116    0.3462742537931887   -0.2531483304439868
 -0.3462742537931886   -0.0465629616745972   -0.2531483304439868
 -0.0465629616745972    0.0465629616746116    0.2531483304439867
 -0.0465629616746114   -0.3462742537931886    0.2531483304439867
  0.3462742537931887    0.0465629616745974    0.2531483304439867
 -0.1359158443153913    0.1359158443153912   -0.4077475329461808
  0.3826742600488231   -0.3826742600488303   -0.3641485062892259
  0.3826742600488302    0.1294970263868795   -0.3641485062892259
 -0.1294970263868795   -0.3826742600488232   -0.3641485062892259
  0.2842487706738862   -0.2842487706738861   -0.1472536879783484
 -0.2056748837121312    0.2056748837121308   -0.1165161361696178
 -0.2056748837121312   -0.2948336312546443   -0.1165161361696178
  0.2948336312546442    0.2056748837121308   -0.1165161361696178
  0.2056748837121308   -0.2056748837121312    0.1165161361696179
  0.2056748837121308    0.2948336312546442    0.1165161361696179
 -0.2948336312546443   -0.2056748837121312    0.1165161361696179
 -0.2842487706738861    0.2842487706738862    0.1472536879783488
 -0.3826742600488232    0.3826742600488302    0.3641485062892261
 -0.3826742600488303   -0.1294970263868795    0.3641485062892261
  0.1294970263868795    0.3826742600488231    0.3641485062892261
  0.1359158443153912   -0.1359158443153913    0.4077475329461810
