 num_wann =  2  ! set to NBANDS by VASP
kmesh_tol = 0.0001
search_shells = 15
dis_win_min = 2.8
dis_win_max = 3.8

dis_froz_min = 2.81
dis_froz_max = 3.79

begin projections  
  f=  0.4165963133851793,  0.5834036866148203,  0.2497889401555385:s
  f=  0.5834036866148203,  0.4165963133851793,  0.7502110598444688:s
end projections


num_iter          = 100000
num_print_cycles  = 10000
guiding_centres = true
use_bloch_phases = false

translate_home_cell = true 
write_xyz = true

hr_plot = true
bands_plot = true


begin kpoint_path
G 0.00000000  0.00000000  0.00000000                M 0.5142857100     0.0000000000    -0.1714285700   
M 0.5142857100     0.0000000000    -0.1714285700    K  0.3428571429     0.3428571429     0.0000000000  
K  0.3428571429     0.3428571429     0.0000000000   G 0.00000000  0.00000000  0.00000000   
G 0.00000000  0.00000000  0.00000000                A 0.000000000000   0.000000000000   0.500000000000
A 0.000000000000   0.000000000000   0.500000000000  L 0.4716981132     0.0000000000     0.3428571429 
L 0.4716981132     0.0000000000     0.3428571429    H 0.3142857143     0.3142857143     0.5000000000
H 0.3142857143     0.3142857143     0.5000000000    A 0.000000000000   0.000000000000   0.500000000000
end kpoint_path

begin unit_cell_cart
     0.0000000    -4.0617909     4.0617909
     4.0617909     0.0000000    -4.0617909
     7.0374186     7.0374186     2.9756277
end unit_cell_cart

begin atoms_cart
Nb       3.5225730    -0.5392179     1.2756624
Nb       5.3374532    -0.5392179    -0.5392179
Nb       3.5225730     1.2756624    -0.5392179
Nb       7.5766364     3.5148455     1.6999653
Nb       5.7617562     3.5148455     3.5148455
Nb       7.5766364     1.6999653     3.5148455
F        3.2168839    -0.8449070    -0.8449070
F        7.8823256     3.8205347     3.8205347
F        1.4259728    -2.6358181     3.4440311
F        3.4440311    -2.6358181     1.4259728
F        1.4259728    -0.6177598     1.4259728
F        9.6732366     5.6114457    -0.4684035
F        7.6551783     5.6114457     1.5496548
F        9.6732366     3.5933874     1.5496548
F        3.4858988    -0.5758921     3.4858988
F        7.6133106     3.5515197    -0.5102712
F        5.5917698     1.5299790    -0.5253626
F        3.5364283     1.5299790     1.5299790
F        5.5917698    -0.5253626     1.5299790
F        5.5074396     1.4456487     3.5009902
F        7.5627811     1.4456487     1.4456487
F        5.5074396     3.5009902     1.4456487
end atoms_cart

mp_grid =     7     7     7

begin kpoints
      0.000000000000      0.000000000000      0.000000000000
      0.142857142857      0.000000000000     -0.000000000000
      0.285714285714      0.000000000000     -0.000000000000
      0.428571428571      0.000000000000      0.000000000000
      0.142857142857      0.142857142857      0.000000000000
      0.285714285714      0.142857142857     -0.000000000000
      0.428571428571      0.142857142857      0.000000000000
     -0.428571428571      0.142857142857      0.000000000000
     -0.285714285714      0.142857142857      0.000000000000
     -0.142857142857      0.142857142857      0.000000000000
      0.285714285714      0.285714285714      0.000000000000
      0.428571428571      0.285714285714     -0.000000000000
     -0.428571428571      0.285714285714      0.000000000000
     -0.285714285714      0.285714285714      0.000000000000
      0.428571428571      0.428571428571      0.000000000000
     -0.428571428571      0.428571428571      0.000000000000
      0.000000000000      0.000000000000      0.142857142857
      0.142857142857      0.000000000000      0.142857142857
      0.285714285714      0.000000000000      0.142857142857
      0.428571428571      0.000000000000      0.142857142857
     -0.428571428571      0.000000000000      0.142857142857
     -0.285714285714      0.000000000000      0.142857142857
      0.142857142857      0.285714285714      0.142857142857
      0.285714285714      0.285714285714      0.142857142857
      0.142857142857      0.428571428571      0.142857142857
      0.285714285714      0.428571428571      0.142857142857
      0.428571428571      0.428571428571      0.142857142857
     -0.428571428571      0.428571428571      0.142857142857
      0.142857142857     -0.428571428571      0.142857142857
      0.285714285714     -0.428571428571      0.142857142857
      0.428571428571     -0.428571428571      0.142857142857
      0.142857142857     -0.285714285714      0.142857142857
      0.285714285714     -0.285714285714      0.142857142857
      0.142857142857     -0.142857142857      0.142857142857
      0.000000000000      0.000000000000      0.285714285714
      0.142857142857      0.000000000000      0.285714285714
      0.285714285714      0.000000000000      0.285714285714
      0.428571428571      0.000000000000      0.285714285714
      0.142857142857     -0.428571428571      0.285714285714
      0.142857142857     -0.285714285714      0.285714285714
      0.285714285714     -0.285714285714      0.285714285714
      0.142857142857     -0.142857142857      0.285714285714
      0.000000000000      0.000000000000      0.428571428571
      0.142857142857      0.000000000000      0.428571428571
     -0.142857142857      0.000000000000      0.000000000000
      0.000000000000     -0.142857142857     -0.000000000000
      0.000000000000      0.142857142857      0.000000000000
     -0.142857142857      0.142857142857      0.142857142857
      0.142857142857     -0.142857142857     -0.142857142857
     -0.285714285714      0.000000000000      0.000000000000
      0.000000000000     -0.285714285714     -0.000000000000
      0.000000000000      0.285714285714      0.000000000000
     -0.285714285714      0.285714285714      0.285714285714
      0.285714285714     -0.285714285714     -0.285714285714
     -0.428571428571      0.000000000000      0.000000000000
      0.000000000000     -0.428571428571      0.000000000000
      0.000000000000      0.428571428571      0.000000000000
     -0.428571428571      0.428571428571      0.428571428571
      0.428571428571     -0.428571428571     -0.428571428571
     -0.142857142857     -0.142857142857      0.000000000000
     -0.285714285714      0.142857142857      0.142857142857
      0.285714285714     -0.142857142857     -0.142857142857
      0.142857142857     -0.285714285714     -0.142857142857
     -0.142857142857      0.285714285714      0.142857142857
     -0.285714285714     -0.142857142857      0.000000000000
     -0.428571428571      0.142857142857      0.142857142857
      0.428571428571     -0.142857142857     -0.142857142857
      0.142857142857     -0.428571428571     -0.142857142857
     -0.142857142857      0.428571428571      0.142857142857
      0.142857142857      0.285714285714      0.000000000000
     -0.142857142857     -0.285714285714     -0.000000000000
     -0.428571428571      0.285714285714      0.285714285714
      0.428571428571     -0.285714285714     -0.285714285714
      0.285714285714     -0.428571428571     -0.285714285714
     -0.285714285714      0.428571428571      0.285714285714
     -0.428571428571     -0.142857142857      0.000000000000
     -0.571428571429      0.142857142857      0.142857142857
      0.571428571429     -0.142857142857     -0.142857142857
      0.142857142857     -0.571428571429     -0.142857142857
     -0.142857142857      0.571428571429      0.142857142857
      0.142857142857      0.428571428571      0.000000000000
     -0.142857142857     -0.428571428571      0.000000000000
     -0.571428571429      0.428571428571      0.428571428571
      0.571428571429     -0.428571428571     -0.428571428571
      0.428571428571     -0.571428571429     -0.428571428571
     -0.428571428571      0.571428571429      0.428571428571
      0.428571428571     -0.142857142857     -0.000000000000
      0.285714285714      0.142857142857      0.142857142857
     -0.285714285714     -0.142857142857     -0.142857142857
      0.142857142857      0.285714285714     -0.142857142857
     -0.142857142857     -0.285714285714      0.142857142857
      0.142857142857     -0.428571428571     -0.000000000000
     -0.142857142857      0.428571428571      0.000000000000
      0.285714285714     -0.428571428571     -0.428571428571
     -0.285714285714      0.428571428571      0.428571428571
     -0.428571428571      0.285714285714      0.428571428571
      0.428571428571     -0.285714285714     -0.428571428571
      0.285714285714     -0.142857142857     -0.000000000000
      0.142857142857      0.142857142857      0.142857142857
     -0.142857142857     -0.142857142857     -0.142857142857
      0.142857142857      0.142857142857     -0.142857142857
     -0.142857142857     -0.142857142857      0.142857142857
      0.142857142857     -0.285714285714     -0.000000000000
     -0.142857142857      0.285714285714      0.000000000000
      0.142857142857     -0.285714285714     -0.285714285714
     -0.142857142857      0.285714285714      0.285714285714
     -0.285714285714      0.142857142857      0.285714285714
      0.285714285714     -0.142857142857     -0.285714285714
      0.142857142857     -0.142857142857     -0.000000000000
      0.000000000000      0.142857142857      0.142857142857
      0.000000000000     -0.142857142857     -0.142857142857
      0.142857142857      0.000000000000     -0.142857142857
     -0.142857142857      0.000000000000      0.142857142857
     -0.285714285714     -0.285714285714      0.000000000000
     -0.571428571429      0.285714285714      0.285714285714
      0.571428571429     -0.285714285714     -0.285714285714
      0.285714285714     -0.571428571429     -0.285714285714
     -0.285714285714      0.571428571429      0.285714285714
     -0.428571428571     -0.285714285714      0.000000000000
     -0.714285714286      0.285714285714      0.285714285714
      0.714285714286     -0.285714285714     -0.285714285714
      0.285714285714     -0.714285714286     -0.285714285714
     -0.285714285714      0.714285714286      0.285714285714
      0.285714285714      0.428571428571      0.000000000000
     -0.285714285714     -0.428571428571     -0.000000000000
     -0.714285714286      0.428571428571      0.428571428571
      0.714285714286     -0.428571428571     -0.428571428571
      0.428571428571     -0.714285714286     -0.428571428571
     -0.428571428571      0.714285714286      0.428571428571
      0.428571428571     -0.285714285714     -0.000000000000
      0.142857142857      0.285714285714      0.285714285714
     -0.142857142857     -0.285714285714     -0.285714285714
      0.285714285714      0.142857142857     -0.285714285714
     -0.285714285714     -0.142857142857      0.285714285714
      0.285714285714     -0.428571428571     -0.000000000000
     -0.285714285714      0.428571428571      0.000000000000
      0.142857142857     -0.428571428571     -0.428571428571
     -0.142857142857      0.428571428571      0.428571428571
     -0.428571428571      0.142857142857      0.428571428571
      0.428571428571     -0.142857142857     -0.428571428571
      0.285714285714     -0.285714285714     -0.000000000000
      0.000000000000      0.285714285714      0.285714285714
      0.000000000000     -0.285714285714     -0.285714285714
      0.285714285714      0.000000000000     -0.285714285714
     -0.285714285714      0.000000000000      0.285714285714
     -0.428571428571     -0.428571428571      0.000000000000
     -0.857142857143      0.428571428571      0.428571428571
      0.857142857143     -0.428571428571     -0.428571428571
      0.428571428571     -0.857142857143     -0.428571428571
     -0.428571428571      0.857142857143      0.428571428571
      0.428571428571     -0.428571428571      0.000000000000
      0.000000000000      0.428571428571      0.428571428571
      0.000000000000     -0.428571428571     -0.428571428571
      0.428571428571      0.000000000000     -0.428571428571
     -0.428571428571      0.000000000000      0.428571428571
      0.000000000000      0.000000000000     -0.142857142857
     -0.142857142857      0.000000000000     -0.142857142857
      0.000000000000     -0.142857142857      0.142857142857
      0.000000000000      0.142857142857     -0.142857142857
     -0.142857142857      0.142857142857      0.285714285714
      0.142857142857     -0.142857142857     -0.285714285714
     -0.285714285714      0.000000000000     -0.142857142857
      0.000000000000     -0.285714285714      0.142857142857
      0.000000000000      0.285714285714     -0.142857142857
     -0.285714285714      0.285714285714      0.428571428571
      0.285714285714     -0.285714285714     -0.428571428571
     -0.428571428571      0.000000000000     -0.142857142857
      0.000000000000     -0.428571428571      0.142857142857
      0.000000000000      0.428571428571     -0.142857142857
     -0.428571428571      0.428571428571      0.571428571429
      0.428571428571     -0.428571428571     -0.571428571429
      0.428571428571      0.000000000000     -0.142857142857
      0.000000000000      0.428571428571      0.142857142857
      0.000000000000     -0.428571428571     -0.142857142857
      0.428571428571     -0.428571428571     -0.285714285714
     -0.428571428571      0.428571428571      0.285714285714
      0.285714285714      0.000000000000     -0.142857142857
      0.000000000000      0.285714285714      0.142857142857
      0.000000000000     -0.285714285714     -0.142857142857
      0.285714285714     -0.285714285714     -0.142857142857
     -0.285714285714      0.285714285714      0.142857142857
     -0.142857142857     -0.285714285714     -0.142857142857
     -0.428571428571      0.285714285714      0.142857142857
      0.428571428571     -0.285714285714     -0.142857142857
      0.285714285714     -0.428571428571     -0.142857142857
     -0.285714285714      0.428571428571      0.142857142857
      0.285714285714      0.142857142857     -0.142857142857
     -0.285714285714     -0.142857142857      0.142857142857
     -0.428571428571      0.142857142857      0.285714285714
      0.428571428571     -0.142857142857     -0.285714285714
      0.142857142857     -0.428571428571     -0.285714285714
     -0.142857142857      0.428571428571      0.285714285714
     -0.285714285714     -0.285714285714     -0.142857142857
     -0.571428571429      0.285714285714      0.142857142857
      0.571428571429     -0.285714285714     -0.142857142857
      0.285714285714     -0.571428571429     -0.142857142857
     -0.285714285714      0.571428571429      0.142857142857
      0.285714285714      0.285714285714     -0.142857142857
     -0.285714285714     -0.285714285714      0.142857142857
     -0.571428571429      0.285714285714      0.428571428571
      0.571428571429     -0.285714285714     -0.428571428571
      0.285714285714     -0.571428571429     -0.428571428571
     -0.285714285714      0.571428571429      0.428571428571
     -0.142857142857     -0.428571428571     -0.142857142857
     -0.571428571429      0.428571428571      0.285714285714
      0.571428571429     -0.428571428571     -0.285714285714
      0.428571428571     -0.571428571429     -0.285714285714
     -0.428571428571      0.571428571429      0.285714285714
      0.428571428571      0.142857142857     -0.142857142857
     -0.428571428571     -0.142857142857      0.142857142857
     -0.571428571429      0.142857142857      0.285714285714
      0.571428571429     -0.142857142857     -0.285714285714
      0.142857142857     -0.571428571429     -0.285714285714
     -0.142857142857      0.571428571429      0.285714285714
     -0.285714285714     -0.428571428571     -0.142857142857
     -0.714285714286      0.428571428571      0.285714285714
      0.714285714286     -0.428571428571     -0.285714285714
      0.428571428571     -0.714285714286     -0.285714285714
     -0.428571428571      0.714285714286      0.285714285714
      0.428571428571      0.285714285714     -0.142857142857
     -0.428571428571     -0.285714285714      0.142857142857
     -0.714285714286      0.285714285714      0.428571428571
      0.714285714286     -0.285714285714     -0.428571428571
      0.285714285714     -0.714285714286     -0.428571428571
     -0.285714285714      0.714285714286      0.428571428571
     -0.428571428571     -0.428571428571     -0.142857142857
     -0.857142857143      0.428571428571      0.285714285714
      0.857142857143     -0.428571428571     -0.285714285714
      0.428571428571     -0.857142857143     -0.285714285714
     -0.428571428571      0.857142857143      0.285714285714
      0.428571428571      0.428571428571     -0.142857142857
     -0.428571428571     -0.428571428571      0.142857142857
     -0.857142857143      0.428571428571      0.571428571429
      0.857142857143     -0.428571428571     -0.571428571429
      0.428571428571     -0.857142857143     -0.571428571429
     -0.428571428571      0.857142857143      0.571428571429
      0.428571428571     -0.428571428571     -0.142857142857
      0.000000000000      0.428571428571      0.285714285714
      0.000000000000     -0.428571428571     -0.285714285714
      0.428571428571      0.000000000000     -0.285714285714
     -0.428571428571      0.000000000000      0.285714285714
     -0.142857142857      0.428571428571     -0.142857142857
      0.285714285714     -0.428571428571     -0.571428571429
     -0.285714285714      0.428571428571      0.571428571429
     -0.428571428571      0.285714285714      0.571428571429
      0.428571428571     -0.285714285714     -0.571428571429
     -0.428571428571      0.142857142857     -0.142857142857
      0.428571428571     -0.142857142857      0.142857142857
      0.285714285714      0.142857142857      0.285714285714
     -0.285714285714     -0.142857142857     -0.285714285714
      0.142857142857      0.285714285714     -0.285714285714
     -0.142857142857     -0.285714285714      0.285714285714
     -0.285714285714      0.428571428571     -0.142857142857
      0.142857142857     -0.428571428571     -0.571428571429
     -0.142857142857      0.428571428571      0.571428571429
     -0.428571428571      0.142857142857      0.571428571429
      0.428571428571     -0.142857142857     -0.571428571429
     -0.428571428571      0.285714285714     -0.142857142857
      0.428571428571     -0.285714285714      0.142857142857
      0.142857142857      0.285714285714      0.428571428571
     -0.142857142857     -0.285714285714     -0.428571428571
      0.285714285714      0.142857142857     -0.428571428571
     -0.285714285714     -0.142857142857      0.428571428571
     -0.428571428571      0.428571428571     -0.142857142857
      0.000000000000     -0.428571428571     -0.571428571429
      0.000000000000      0.428571428571      0.571428571429
     -0.428571428571      0.000000000000      0.571428571429
      0.428571428571      0.000000000000     -0.571428571429
     -0.142857142857      0.285714285714     -0.142857142857
      0.142857142857     -0.285714285714     -0.428571428571
     -0.142857142857      0.285714285714      0.428571428571
     -0.285714285714      0.142857142857      0.428571428571
      0.285714285714     -0.142857142857     -0.428571428571
     -0.285714285714      0.142857142857     -0.142857142857
      0.285714285714     -0.142857142857      0.142857142857
      0.142857142857      0.142857142857      0.285714285714
     -0.142857142857     -0.142857142857     -0.285714285714
      0.142857142857      0.142857142857     -0.285714285714
     -0.142857142857     -0.142857142857      0.285714285714
     -0.285714285714      0.285714285714     -0.142857142857
      0.000000000000     -0.285714285714     -0.428571428571
      0.000000000000      0.285714285714      0.428571428571
     -0.285714285714      0.000000000000      0.428571428571
      0.285714285714      0.000000000000     -0.428571428571
     -0.142857142857      0.142857142857     -0.142857142857
      0.000000000000     -0.142857142857     -0.285714285714
      0.000000000000      0.142857142857      0.285714285714
     -0.142857142857      0.000000000000      0.285714285714
      0.142857142857      0.000000000000     -0.285714285714
      0.000000000000      0.000000000000     -0.285714285714
     -0.142857142857      0.000000000000     -0.285714285714
      0.000000000000     -0.142857142857      0.285714285714
      0.000000000000      0.142857142857     -0.285714285714
     -0.142857142857      0.142857142857      0.428571428571
      0.142857142857     -0.142857142857     -0.428571428571
     -0.285714285714      0.000000000000     -0.285714285714
      0.000000000000     -0.285714285714      0.285714285714
      0.000000000000      0.285714285714     -0.285714285714
     -0.285714285714      0.285714285714      0.571428571429
      0.285714285714     -0.285714285714     -0.571428571429
     -0.428571428571      0.000000000000     -0.285714285714
      0.000000000000     -0.428571428571      0.285714285714
      0.000000000000      0.428571428571     -0.285714285714
     -0.428571428571      0.428571428571      0.714285714286
      0.428571428571     -0.428571428571     -0.714285714286
     -0.142857142857      0.428571428571     -0.285714285714
      0.285714285714     -0.428571428571     -0.714285714286
     -0.285714285714      0.428571428571      0.714285714286
     -0.428571428571      0.285714285714      0.714285714286
      0.428571428571     -0.285714285714     -0.714285714286
     -0.428571428571      0.142857142857     -0.285714285714
      0.428571428571     -0.142857142857      0.285714285714
      0.285714285714      0.142857142857      0.428571428571
     -0.285714285714     -0.142857142857     -0.428571428571
      0.142857142857      0.285714285714     -0.428571428571
     -0.142857142857     -0.285714285714      0.428571428571
     -0.142857142857      0.285714285714     -0.285714285714
      0.142857142857     -0.285714285714     -0.571428571429
     -0.142857142857      0.285714285714      0.571428571429
     -0.285714285714      0.142857142857      0.571428571429
      0.285714285714     -0.142857142857     -0.571428571429
     -0.285714285714      0.142857142857     -0.285714285714
      0.285714285714     -0.142857142857      0.285714285714
      0.142857142857      0.142857142857      0.428571428571
     -0.142857142857     -0.142857142857     -0.428571428571
      0.142857142857      0.142857142857     -0.428571428571
     -0.142857142857     -0.142857142857      0.428571428571
     -0.285714285714      0.285714285714     -0.285714285714
      0.000000000000     -0.285714285714     -0.571428571429
      0.000000000000      0.285714285714      0.571428571429
     -0.285714285714      0.000000000000      0.571428571429
      0.285714285714      0.000000000000     -0.571428571429
     -0.142857142857      0.142857142857     -0.285714285714
      0.000000000000     -0.142857142857     -0.428571428571
      0.000000000000      0.142857142857      0.428571428571
     -0.142857142857      0.000000000000      0.428571428571
      0.142857142857      0.000000000000     -0.428571428571
      0.000000000000      0.000000000000     -0.428571428571
     -0.142857142857      0.000000000000     -0.428571428571
      0.000000000000     -0.142857142857      0.428571428571
      0.000000000000      0.142857142857     -0.428571428571
     -0.142857142857      0.142857142857      0.571428571429
      0.142857142857     -0.142857142857     -0.571428571429
end kpoints
