SYSTEM = NbI
PREC = Normal
ENCUT = 350
ISMEAR = 0
SIGMA = 0.05
EDIFF = 1E-05
NEDOS = 2000
LORBIT = 11
NELM = 600
NELMIN = 5
NPAR = 8
ALGO = Normal
NBANDS = 192
SYMPREC = 0.000001
