Nb3I8
1.0
0.000000000000  -5.374011537020  5.374011537020
5.374011537020  0.000000000000  -5.374011537020
9.819392672090  9.819392672090  4.445381135070
Nb   I
6  16
Direct
0.547600000000  0.452400000000  0.247800000000
0.547600000000  0.847400000000  0.247800000000
0.152600000000  0.452400000000  0.247800000000
0.452400000000  0.547600000000  0.752200000000
0.452400000000  0.152600000000  0.752200000000
0.847400000000  0.547600000000  0.752200000000
0.216200000000  0.783800000000  0.648600000000
0.783800000000  0.216200000000  0.351400000000
0.364600000000  0.635400000000  0.093800000000
0.635400000000  0.364600000000  0.906200000000
0.292600000000  0.707400000000  0.382800000000
0.292600000000  0.202400000000  0.382800000000
0.797600000000  0.707400000000  0.382800000000
0.707400000000  0.292600000000  0.617200000000
0.707400000000  0.797600000000  0.617200000000
0.202400000000  0.292600000000  0.617200000000
0.882600000000  0.117400000000  0.136800000000
0.882600000000  0.628400000000  0.136800000000
0.371600000000  0.117400000000  0.136800000000
0.117400000000  0.882600000000  0.863200000000
0.117400000000  0.371600000000  0.863200000000
0.628400000000  0.882600000000  0.863200000000
