&CONTROL
   calculation      = 'relax'
   !restart_mode     = 'from_scratch'
   verbosity        = 'high'
   outdir           = './out'
   prefix           = 'Nb3Br8'
   pseudo_dir       = '/scratch-shared/mroesner/Nb3X8_cDFPT/pp'
   tprnfor          = .true.
   tstress          = .true.
   forc_conv_thr    = 1.0D-6     ! default: 1.0D-3
/
&SYSTEM
   ibrav            = 0
   nat              = 22
   ntyp             = 2
   ecutwfc          = 100.0
   occupations      = 'smearing'
   degauss          = 0.0036749293
   smearing         = 'marzari-vanderbilt'
   input_dft        = 'pbe'
   vdw_corr         = 'grimme-d3'
   dftd3_threebody  = .false.
   !nr1              = 180
   !nr2              = 180
   !nr3              = 180
/
&ELECTRONS
    conv_thr        = 1e-12
    diago_full_acc  = .true.
/
&IONS
   ion_dynamics      = 'damp'
   !bfgs_ndim         = 5
   pot_extrapolation = 'second_order' 
   wfc_extrapolation = 'second_order'
/
&CELL
/
&FCP
/
&RISM
/
ATOMIC_SPECIES
Nb 92.90637 Nb_ONCV_PBE-1.2.upf
Br 79.904   Br_ONCV_PBE-1.2.upf

K_POINTS automatic
6 6 1  0 0 0

CELL_PARAMETERS angstrom
    6.13802787374265      3.54379204519875      0.00000000000000
   -6.13802787374265      3.54379204519875      0.00000000000000
    0.00000000000000      0.00000000000000     32.32815602621883

ATOMIC_POSITIONS (crystal)
Nb    0.13492539714700    -0.13492539714700    -0.10108791562640
Nb    0.13492539714700     0.26985079429410    -0.10108791562640
Nb   -0.26985079429410    -0.13492539714700    -0.10108791562640
Nb   -0.13492539714700     0.13492539714700     0.10108791562640
Nb   -0.13492539714700    -0.26985079429410     0.10108791562640
Nb    0.26985079429410     0.13492539714700     0.10108791562640
Br    0.00000000000000     0.00000000000000    -0.16204235998800
Br   -0.49672300523280     0.49672300523280    -0.14562301736280
Br   -0.49672300523280     0.00655398953430    -0.14562301736280
Br   -0.00655398953430     0.49672300523280    -0.14562301736280
Br    0.33333333333330    -0.33333333333330    -0.05723840484860
Br   -0.16641576413930     0.16641576413930    -0.04704412490420
Br   -0.16641576413930    -0.33283152827860    -0.04704412490420
Br    0.33283152827860     0.16641576413930    -0.04704412490420
Br    0.16641576413930    -0.16641576413930     0.04704412490420
Br    0.16641576413930     0.33283152827860     0.04704412490420
Br   -0.33283152827860    -0.16641576413930     0.04704412490420
Br   -0.33333333333330     0.33333333333330     0.05723840484860
Br    0.49672300523280    -0.49672300523280     0.14562301736280
Br    0.49672300523280    -0.00655398953430     0.14562301736280
Br    0.00655398953430    -0.49672300523280     0.14562301736280
Br    0.00000000000000     0.00000000000000     0.16204235998800

