&CONTROL
   calculation      = 'relax'
   !restart_mode     = 'from_scratch'
   verbosity        = 'high'
   outdir           = './out'
   prefix           = 'Nb3Br8'
   pseudo_dir       = '/scratch-shared/mroesner/Nb3X8_cDFPT/pp'
   tprnfor          = .true.
   tstress          = .true.
   forc_conv_thr    = 1.0D-6     ! default: 1.0D-3
/
&SYSTEM
   ibrav            = 0
   nat              = 11
   ntyp             = 2
   ecutwfc          = 100.0
   occupations      = 'smearing'
   degauss          = 0.0036749293
   smearing         = 'marzari-vanderbilt'
   input_dft        = 'pbe'
   vdw_corr         = 'grimme-d3'
   dftd3_threebody  = .false.
   !nr1              = 180
   !nr2              = 180
   !nr3              = 180
/
&ELECTRONS
    conv_thr        = 1e-12
    diago_full_acc  = .true.
/
&IONS
   ion_dynamics      = 'damp'
   !bfgs_ndim         = 5
   pot_extrapolation = 'second_order' 
   wfc_extrapolation = 'second_order'
/
&CELL
/
&FCP
/
&RISM
/
ATOMIC_SPECIES
Nb 92.90637 Nb_ONCV_PBE-1.2.upf
Br 79.904   Br_ONCV_PBE-1.2.upf

K_POINTS automatic
6 6 1  0 0 0

CELL_PARAMETERS angstrom
    6.13802787374265      3.54379204519875      0.00000000000000
   -6.13802787374265      3.54379204519875      0.00000000000000
    0.00000000000000      0.00000000000000     32.32815602621883

ATOMIC_POSITIONS (crystal)
Nb               0.1350744960       -0.1350744960       -0.1018333876
Nb               0.1350744960        0.2701489919       -0.1018333876
Nb              -0.2701489919       -0.1350744960       -0.1018333876
Br              -0.0000000000       -0.0000000000       -0.1633898367
Br              -0.4977941624        0.4977941624       -0.1467068755
Br              -0.4977941624        0.0044116751       -0.1467068755
Br              -0.0044116751        0.4977941624       -0.1467068755
Br               0.3333333333       -0.3333333333       -0.0577541486
Br              -0.1664356666        0.1664356666       -0.0476000346
Br              -0.1664356666       -0.3328713331       -0.0476000346
Br               0.3328713331        0.1664356666       -0.0476000346

