
&INPUT
    fildyn = 'dyn'
    flfrc = 'Nb3F8.ifc'

    zasr = 'simple'

/
