Nb3Cl8
&INPUTPH
    prefix = 'Nb3Cl8'
    outdir = './out'

    recover = .true.

    fildyn = 'dyn'
    fildvscf = 'dvscf'

    ldisp = .true.
    nq1 = 2
    nq2 = 2
    nq3 = 2

    tr2_ph = 1e-16

    cdfpt_bnd(1:2) = 95,96

    !verbosity = 'high'
    !diagonalization = 'cg'

/
