&CONTROL
   calculation      = 'scf',
   verbosity        = 'high'
   outdir           = './out'
   prefix           = 'Nb3Cl8'
   tprnfor          = .true.
   tstress          = .true.
   pseudo_dir       = '/scratch-shared/mroesner/Nb3X8_cDFPT/pp'
/
&SYSTEM
   ibrav            = 0
   nat              = 11
   ntyp             = 2
   ecutwfc          = 100.0
   occupations      = 'smearing'
   degauss          = 0.0036749293
   smearing         = 'gaussian'
   input_dft        = 'pbe'
   vdw_corr         = 'grimme-d3'
   dftd3_threebody  = .false.,
   !nr1              = 180,
   !nr2              = 180,
   !nr3              = 180,
/
&ELECTRONS
   conv_thr         = 1e-12
    diago_full_acc  = .true.
/
&IONS
/
&CELL
/
&FCP
/
&RISM
/
ATOMIC_SPECIES
Nb 92.90637 Nb_ONCV_PBE-1.2.upf
Cl 35.45270 Cl_ONCV_PBE-1.2.upf

K_POINTS automatic
6 6 1  0 0 0

CELL_PARAMETERS (angstrom)
   5.833355223   3.367889208   0.000000000
  -5.833355223   3.367889208   0.000000000
   0.000000000   0.000000000  30.698971239

ATOMIC_POSITIONS (crystal)
Nb              -0.1387052481        0.1387052481        0.1018286942
Nb              -0.1387052481       -0.2774104962        0.1018286942
Nb               0.2774104962        0.1387052481        0.1018286942
Cl               0.1645703946       -0.1645703946        0.0477567244
Cl               0.1645703946        0.3291407893        0.0477567244
Cl              -0.3291407893       -0.1645703946        0.0477567244
Cl              -0.3333333333        0.3333333333        0.0572528357
Cl               0.4982847258       -0.4982847258        0.1460204646
Cl               0.4982847258       -0.0034305485        0.1460204646
Cl               0.0034305485       -0.4982847258        0.1460204646
Cl               0.0000000000       -0.0000000000        0.1620079760

