&CONTROL
   calculation      = 'relax'
   !restart_mode     = 'from_scratch'
   verbosity        = 'high'
   outdir           = './out'
   prefix           = 'Nb3I8'
   pseudo_dir       = '/scratch-shared/mroesner/Nb3X8_cDFPT/pp'
   tprnfor          = .true.
   tstress          = .true.
   forc_conv_thr    = 1.0D-6     ! default: 1.0D-3
/
&SYSTEM
   ibrav            = 0
   nat              = 22
   ntyp             = 2
   ecutwfc          = 100.0
   occupations      = 'smearing'
   degauss          = 0.0036749293
   smearing         = 'marzari-vanderbilt'
   input_dft        = 'pbe'
   vdw_corr         = 'grimme-d3'
   dftd3_threebody  = .false.
   !nr1              = 180
   !nr2              = 180
   !nr3              = 180
/
&ELECTRONS
    conv_thr        = 1e-12
    diago_full_acc  = .true.
/
&IONS
   ion_dynamics      = 'damp'
   !bfgs_ndim         = 5
   pot_extrapolation = 'second_order' 
   wfc_extrapolation = 'second_order'
/
&CELL
/
&FCP
/
&RISM
/
ATOMIC_SPECIES
Nb 92.90637 Nb_ONCV_PBE-1.2.upf
I 126.90447 I_ONCV_PBE-1.2.upf

K_POINTS automatic
6 6 6  0 0 0

CELL_PARAMETERS angstrom
 6.60840400789183 3.81536383287015 0.00000000000000
-6.60840400789183 3.81536383287015 0.00000000000000
-4.40560267192789 0.00000000000000 13.74671134166368

ATOMIC_POSITIONS (angstrom)
Nb              -9.2848512644        3.8153638329       10.2660342854
Nb              -5.2701803795        1.4974925169       10.2660342854
Nb              -5.2701803795        6.1332351488       10.2660342854
Nb               4.8792485925        3.8153638329        3.4806770562
Nb               0.8645777075        6.1332351488        3.4806770562
Nb               0.8645777075        1.4974925169        3.4806770562
I                2.2028013360        3.8153638329        8.1280587353
I               -4.3504427924        3.8153638329        8.7381177646
I               -1.1289806077        1.9554517735        8.7381177646
I               -1.1289806077        5.6752758922        8.7381177646
I               -6.6084040079        3.8153638329       11.7232353629
I               -0.0067892486        3.8153638329       12.1502532705
I               -3.3008073796        5.7171660876       12.1502532705
I               -3.3008073796        1.9135615781       12.1502532705
I               -4.3988134233        3.8153638329        1.5964580712
I               -1.1047952923        1.9135615781        1.5964580712
I               -1.1047952923        5.7171660876        1.5964580712
I                2.2028013360        3.8153638329        2.0234759787
I               -0.0551598795        3.8153638329        5.0085935771
I               -3.2766220642        5.6752758922        5.0085935771
I               -3.2766220642        1.9554517735        5.0085935771
I               -6.6084040079        3.8153638329        5.6186526064

