  SYSTEM = NbF
    PREC = Accurate
   ENCUT = 550
  ISMEAR = 0
   SIGMA = 0.05
   NCORE = 8
    LVDW = .TRUE.
    IVDW = 11
  NBANDS = 188
   NEDOS = 2000
  LORBIT = 11
 LOPTICS = .TRUE.
