1_NbF                                   
   1.0000000000000000     
    5.11245879008615      2.95167945867711      0.00000000000000
   -5.11245879008615      2.95167945867711      0.00000000000000
    0.00000000000000      0.00000000000000     19.44164549353814
  Nb              F             
3  8  
Direct
   -0.14554848613390     0.14554848613390     0.12510358208780
   -0.14554848613390    -0.29109697226780     0.12510358208780
    0.29109697226780     0.14554848613390     0.12510358208780
    0.16379637208680    -0.16379637208680     0.05684389381580
    0.16379637208680     0.32759274417360     0.05684389381580
   -0.32759274417360    -0.16379637208680     0.05684389381580
   -0.33333333333330     0.33333333333330     0.06720586926340
   -0.49470985919160     0.49470985919160     0.18116838383610
   -0.49470985919160     0.01058028161690     0.18116838383610
   -0.01058028161690     0.49470985919160     0.18116838383610
    0.00000000000000     0.00000000000000     0.20520773383010
