Nb3Cl8
&INPUT
    prefix = 'Nb3Cl8'
    outdir = './out'
/
