&CONTROL
   calculation      = 'scf',
   verbosity        = 'high'
   outdir           = './out'
   prefix           = 'Nb3Cl8'
   tprnfor          = .true.
   tstress          = .true.
   pseudo_dir       = '/scratch-shared/mroesner/Nb3X8_cDFPT/pp'
/
&SYSTEM
   ibrav            = 0
   nat              = 22
   ntyp             = 2
   ecutwfc          = 100.0
   occupations      = 'smearing'
   degauss          = 0.0036749293
   smearing         = 'gaussian'
   input_dft        = 'pbe'
   vdw_corr         = 'grimme-d3'
   dftd3_threebody  = .false.,
   nr1              = 180,
   nr2              = 180,
   nr3              = 180,
/
&ELECTRONS
   conv_thr         = 1e-12
    diago_full_acc  = .true.
/
&IONS
/
&CELL
/
&FCP
/
&RISM
/
ATOMIC_SPECIES
Nb 92.90637 Nb_ONCV_PBE-1.2.upf
Cl 35.45270 Cl_ONCV_PBE-1.2.upf

K_POINTS automatic
6 6 6  0 0 0

CELL_PARAMETERS (angstrom)
   5.833355223   3.367889208   0.000000000
  -5.833355223   3.367889208   0.000000000
  -3.888903482   0.000000000  12.279588495

ATOMIC_POSITIONS (crystal)
Nb               0.0542801742       -0.0542801742       -0.2524660278
Nb               0.0542801742        0.3610263761       -0.2524660278
Nb              -0.3610263761       -0.0542801742       -0.2524660278
Nb              -0.0542801742        0.0542801742        0.2524660278
Nb              -0.0542801742       -0.3610263761        0.2524660278
Nb               0.3610263761        0.0542801742        0.2524660278
Cl              -0.1339607180        0.1339607180       -0.4018821539
Cl               0.3808770319       -0.3808770319       -0.3633964184
Cl               0.3808770319        0.1251504820       -0.3633964184
Cl              -0.1251504820       -0.3808770319       -0.3633964184
Cl               0.2861642135       -0.2861642135       -0.1415073595
Cl              -0.2050967025        0.2050967025       -0.1189198224
Cl              -0.2050967025       -0.2912735827       -0.1189198224
Cl               0.2912735827        0.2050967025       -0.1189198224
Cl               0.2050967025       -0.2050967025        0.1189198224
Cl               0.2050967025        0.2912735827        0.1189198224
Cl              -0.2912735827       -0.2050967025        0.1189198224
Cl              -0.2861642135        0.2861642135        0.1415073595
Cl              -0.3808770319        0.3808770319        0.3633964184
Cl              -0.3808770319       -0.1251504820        0.3633964184
Cl               0.1251504820        0.3808770319        0.3633964184
Cl               0.1339607180       -0.1339607180        0.4018821539

