SYSTEM = NbCl
PREC = Accurate
ENCUT = 550
ISMEAR = 0
SIGMA = 0.05
LVDW = .TRUE.
IVDW = 11
NBANDS = 288
NEDOS = 2000
LORBIT = 11


ALGO = CRPA
NTARGET_STATES = 1 2
NCSHMEM = 1
NCRPA_BANDS = 95 96
#LPROJECTED = .TRUE.

# wannier90 controls:
# LWANNIER90_RUN = T
NUM_WANN = 2


WANNIER90_WIN = "

begin projections
f=-0.08416012,0.08416012,-0.25248037:s
f=0.08416012,-0.08416012,0.25248037:s
end projections

#E_f = 5.2946
dis_froz_min= 4.5
dis_froz_max= 5.7


dis_num_iter = 10000
dis_conv_tol = 1.0e-13
search_shells=36

num_iter          = 10000
conv_tol          = 1.0E-13
num_print_cycles  = 100

write_hr = true

bands_plot = true
begin kpoint_path
  G   0.000000000000   0.000000000000   0.000000000000      M   0.500000000000   0.000000000000  -0.166666666667
  M   0.500000000000   0.000000000000  -0.166666666667      K   0.333333333333   0.333333333333   0.000000000000
  K   0.333333333333   0.333333333333   0.000000000000      G   0.000000000000   0.000000000000   0.000000000000
  G   0.000000000000   0.000000000000   0.000000000000      A   0.000000000000   0.000000000000   0.500000000000
  A   0.000000000000   0.000000000000   0.500000000000      L   0.500000000000   0.000000000000   0.333333333333
  L   0.500000000000   0.000000000000   0.333333333333      H   0.333333333333   0.333333333333   0.500000000000
  H   0.333333333333   0.333333333333   0.500000000000      A   0.000000000000   0.000000000000   0.500000000000
end kpoint_path
"
