&CONTROL
   calculation      = 'scf',
   verbosity        = 'high'
   outdir           = './out'
   prefix           = 'Nb3Br8'
   tprnfor          = .true.
   tstress          = .true.
   pseudo_dir       = '/scratch-shared/mroesner/Nb3X8_cDFPT/pp'
/
&SYSTEM
   ibrav            = 0
   nat              = 22
   ntyp             = 2
   ecutwfc          = 100.0
   occupations      = 'smearing'
   degauss          = 0.0036749293
   smearing         = 'gaussian'
   input_dft        = 'pbe'
   vdw_corr         = 'grimme-d3'
   dftd3_threebody  = .false.,
   !nr1              = 180,
   !nr2              = 180,
   !nr3              = 180,
/
&ELECTRONS
   conv_thr         = 1e-12
    diago_full_acc  = .true.
/
&IONS
/
&CELL
/
&FCP
/
&RISM
/
ATOMIC_SPECIES
Nb 92.90637 Nb_ONCV_PBE-1.2.upf
Br 79.904   Br_ONCV_PBE-1.2.upf

K_POINTS automatic
6 6 1  0 0 0

CELL_PARAMETERS (angstrom)
   6.138027874   3.543792045   0.000000000
  -6.138027874   3.543792045   0.000000000
   0.000000000   0.000000000  32.328156026

ATOMIC_POSITIONS (crystal)
Nb               0.1350744960       -0.1350744960       -0.1018333876
Nb               0.1350744960        0.2701489919       -0.1018333876
Nb              -0.2701489919       -0.1350744960       -0.1018333876
Nb              -0.1350744960        0.1350744960        0.1018333876
Nb              -0.1350744960       -0.2701489919        0.1018333876
Nb               0.2701489919        0.1350744960        0.1018333876
Br              -0.0000000000       -0.0000000000       -0.1633898367
Br              -0.4977941624        0.4977941624       -0.1467068755
Br              -0.4977941624        0.0044116751       -0.1467068755
Br              -0.0044116751        0.4977941624       -0.1467068755
Br               0.3333333333       -0.3333333333       -0.0577541486
Br              -0.1664356666        0.1664356666       -0.0476000346
Br              -0.1664356666       -0.3328713331       -0.0476000346
Br               0.3328713331        0.1664356666       -0.0476000346
Br               0.1664356666       -0.1664356666        0.0476000346
Br               0.1664356666        0.3328713331        0.0476000346
Br              -0.3328713331       -0.1664356666        0.0476000346
Br              -0.3333333333        0.3333333333        0.0577541486
Br               0.4977941624       -0.4977941624        0.1467068755
Br               0.4977941624       -0.0044116751        0.1467068755
Br               0.0044116751       -0.4977941624        0.1467068755
Br              -0.0000000000       -0.0000000000        0.1633898367
