NbBr-P3m
   1.0000000000000000
     6.1436368120794800    3.5470303672573822    0.0000000000000000
    -6.1436368120794800    3.5470303672573822    0.0000000000000000
     0.0000000000000000    0.0000000000000000   12.9430790159135203
  Nb              Br
     6    16
Direct
  0.0314631652168601   -0.4370736695662609   -0.2540247284348648
  0.4370736695662656   -0.0314631652168625   -0.2540247284348648
  0.0314631652168601   -0.0314631652168625   -0.2540247284348648
 -0.0314631652168625    0.4370736695662656    0.2540247284348648
 -0.4370736695662609    0.0314631652168601    0.2540247284348648
 -0.0314631652168625    0.0314631652168601    0.2540247284348648
  0.1666669999999991   -0.1666669999999945   -0.4061066321140685
 -0.3369078283538366   -0.1738156567076755   -0.3644105000281375
 -0.3369078283538366    0.3369078283538413   -0.3644105000281375
  0.1738156567076801    0.3369078283538413   -0.3644105000281375
 -0.1666669999999945    0.1666669999999991   -0.1445502005256529
 -0.1649765286884766   -0.3324882643442407   -0.1183063354797467
  0.3324882643442453   -0.3324882643442407   -0.1183063354797467
  0.3324882643442453    0.1649765286884812   -0.1183063354797467
 -0.3324882643442407   -0.1649765286884766    0.1183063354797467
 -0.3324882643442407    0.3324882643442453    0.1183063354797467
  0.1649765286884812    0.3324882643442453    0.1183063354797467
  0.1666669999999991   -0.1666669999999945    0.1445502005256528
 -0.1738156567076755   -0.3369078283538366    0.3644105000281375
  0.3369078283538413   -0.3369078283538366    0.3644105000281375
  0.3369078283538413    0.1738156567076801    0.3644105000281375
 -0.1666669999999945    0.1666669999999991    0.4061066321140685
