&CONTROL
   calculation      = 'scf',
   verbosity        = 'high'
   outdir           = './out'
   prefix           = 'Nb3F8'
   tprnfor          = .true.
   tstress          = .true.
   pseudo_dir       = '/scratch-shared/mroesner/Nb3X8_cDFPT/pp'
/
&SYSTEM
   ibrav            = 0
   nat              = 22
   ntyp             = 2
   ecutwfc          = 100.0
   occupations      = 'smearing'
   degauss          = 0.0036749293
   smearing         = 'gaussian'
   input_dft        = 'pbe'
   vdw_corr         = 'grimme-d3'
   dftd3_threebody  = .false.,
   nr1              = 180,
   nr2              = 180,
   nr3              = 180,
/
&ELECTRONS
   conv_thr         = 1e-12
    diago_full_acc  = .true.
/
&IONS
/
&CELL
/
&FCP
/
&RISM
/
ATOMIC_SPECIES
Nb 92.90637 Nb_ONCV_PBE-1.2.upf
F  18.99840 F_ONCV_PBE-1.2.upf

K_POINTS automatic
6 6 6  0 0 0

CELL_PARAMETERS angstrom
     5.1124587900861469    2.9516794586771060    0.0000000000000000
    -5.1124587900861469    2.9516794586771060    0.0000000000000000
    -3.4083058600574323    0.0000000000000000    9.7208227467690715

ATOMIC_POSITIONS (crystal)
Nb               0.0622774593       -0.0622774494       -0.2499962536
Nb               0.0622774494        0.3745511624       -0.2499962536
Nb              -0.3745511624       -0.0622774593       -0.2499962536
Nb              -0.0622774593        0.0622774494        0.2499962536
Nb              -0.0622774494       -0.3745511624        0.2499962536
Nb               0.3745511624        0.0622774593        0.2499962536
F               -0.1367608821        0.1367608821       -0.4102826463
F                0.3741643948       -0.3741643850       -0.3618269909
F                0.3741643850        0.1101557706       -0.3618269909
F               -0.1101557706       -0.3741643948       -0.3618269909
F                0.2885344523       -0.2885344523       -0.1343966431
F               -0.2015780362        0.2015780460       -0.1135427094
F               -0.2015780460       -0.2896133728       -0.1135427094
F                0.2896133728        0.2015780362       -0.1135427094
F                0.2015780362       -0.2015780460        0.1135427094
F                0.2015780460        0.2896133728        0.1135427094
F               -0.2896133728       -0.2015780362        0.1135427094
F               -0.2885344523        0.2885344523        0.1343966431
F               -0.3741643948        0.3741643850        0.3618269909
F               -0.3741643850       -0.1101557706        0.3618269909
F                0.1101557706        0.3741643948        0.3618269909
F                0.1367608821       -0.1367608821        0.4102826463


