3a_NbBr                                 
   1.0000000000000000     
    6.13802787374265      3.54379204519875      0.00000000000000
   -6.13802787374265      3.54379204519875      0.00000000000000
    0.00000000000000      0.00000000000000     25.86252482097506
  Nb              Br            
3  8  
Direct
   -0.13492539714700     0.13492539714700     0.12635989453300
   -0.13492539714700    -0.26985079429410     0.12635989453300
    0.26985079429410     0.13492539714700     0.12635989453300
    0.16641576413930    -0.16641576413930     0.05880515613020
    0.16641576413930     0.33283152827860     0.05880515613020
   -0.33283152827860    -0.16641576413930     0.05880515613020
   -0.33333333333330     0.33333333333330     0.07154800606070
    0.49672300523280    -0.49672300523280     0.18202877170350
    0.49672300523280    -0.00655398953430     0.18202877170350
    0.00655398953430    -0.49672300523280     0.18202877170350
    0.00000000000000     0.00000000000000     0.20255294998490
