&CONTROL
   calculation      = 'scf',
   verbosity        = 'high'
   outdir           = './out'
   prefix           = 'Nb3I8'
   tprnfor          = .true.
   tstress          = .true.
   pseudo_dir       = '/scratch-shared/mroesner/Nb3X8_cDFPT/pp'
/
&SYSTEM
   ibrav            = 0
   nat              = 22
   ntyp             = 2
   ecutwfc          = 100.0
   occupations      = 'smearing'
   degauss          = 0.0036749293
   smearing         = 'gaussian'
   input_dft        = 'pbe'
   vdw_corr         = 'grimme-d3'
   dftd3_threebody  = .false.,
   nr1              = 180,
   nr2              = 180,
   nr3              = 180,
/
&ELECTRONS
   conv_thr         = 1e-12
    diago_full_acc  = .true.
/
&IONS
/
&CELL
/
&FCP
/
&RISM
/
ATOMIC_SPECIES
Nb 92.90637 Nb_ONCV_PBE-1.2.upf
I 126.90447 I_ONCV_PBE-1.2.upf

K_POINTS automatic
6 6 6  0 0 0

CELL_PARAMETERS (angstrom)
   6.608404008   3.815363833   0.000000000
  -6.608404008   3.815363833   0.000000000
  -4.405602672   0.000000000  13.746711342

ATOMIC_POSITIONS (angstrom)
Nb              -9.2848511929        3.8153638329       10.2657922776
Nb              -5.2701804153        1.4974925789       10.2657922776
Nb              -5.2701804153        6.1332350868       10.2657922776
Nb               4.8792485210        3.8153638329        3.4809190640
Nb               0.8645777433        6.1332350868        3.4809190640
Nb               0.8645777433        1.4974925789        3.4809190640
I                2.2028013360        3.8153638329        8.1278306189
I               -4.3504203719        3.8153638329        8.7378971847
I               -1.1289918179        1.9554711902        8.7378971847
I               -1.1289918179        5.6752564755        8.7378971847
I               -6.6084040079        3.8153638329       11.7229918185
I               -0.0067783147        3.8153638329       12.1500392074
I               -3.3008128465        5.7171755566       12.1500392074
I               -3.3008128465        1.9135521091       12.1500392074
I               -4.3988243572        3.8153638329        1.5966721343
I               -1.1047898254        1.9135521091        1.5966721343
I               -1.1047898254        5.7171755566        1.5966721343
I                2.2028013360        3.8153638329        2.0237195231
I               -0.0551823000        3.8153638329        5.0088141570
I               -3.2766108540        5.6752564755        5.0088141570
I               -3.2766108540        1.9554711902        5.0088141570
I               -6.6084040079        3.8153638329        5.6188807228

