Nb3Br8
&INPUTPH
    prefix = 'Nb3Br8'
    outdir = './out'

    recover = .true.

    fildyn = 'dyn'
    fildvscf = 'dvscf'

    ldisp = .true.
    nq1 = 2
    nq2 = 2
    nq3 = 2

    tr2_ph = 1e-17

    !verbosity = 'high'
    !diagonalization = 'cg'

/
