&CONTROL
   calculation      = 'scf'
   restart_mode     = 'from_scratch'
   verbosity        = 'high'
   outdir           = './out'
   prefix           = 'Nb3Br8'
   pseudo_dir       = '/scratch-shared/mroesner/Nb3X8_cDFPT/pp'
   tprnfor          = .true.
   tstress          = .true.
/
&SYSTEM
   ibrav            = 0
   nat              = 22
   ntyp             = 2
   ecutwfc          = 100.0
   occupations      = 'smearing'
   degauss          = 0.0036749293
   smearing         = 'marzari-vanderbilt'
   input_dft        = 'pbe'
   vdw_corr         = 'grimme-d3'
   dftd3_threebody  = .false.
   nr1              = 180
   nr2              = 180
   nr3              = 180
/
&ELECTRONS
    conv_thr        = 1e-16
    diago_full_acc  = .true.
/
&IONS
/
&CELL
/
&FCP
/
&RISM
/
ATOMIC_SPECIES
Nb 92.90637 Nb_ONCV_PBE-1.2.upf
Br 79.904   Br_ONCV_PBE-1.2.upf

K_POINTS automatic
6 6 6  0 0 0

CELL_PARAMETERS (angstrom)
   6.151244551   3.551422697  -0.000000000
  -6.151244551   3.551422697   0.000000000
  -4.100829701   0.000000000  12.989843448

ATOMIC_POSITIONS (crystal)
Nb               0.0505545914       -0.0505545914       -0.2527644996
Nb               0.0505545914        0.3538736823       -0.2527644996
Nb              -0.3538736823       -0.0505545914       -0.2527644996
Nb              -0.0505545914        0.0505545914        0.2527644996
Nb              -0.0505545914       -0.3538736823        0.2527644996
Nb               0.3538736823        0.0505545914        0.2527644996
Br              -0.1349645771        0.1349645771       -0.4048937314
Br               0.3819181500       -0.3819181500       -0.3636003090
Br               0.3819181500        0.1274366089       -0.3636003090
Br              -0.1274366089       -0.3819181500       -0.3636003090
Br               0.2854666824       -0.2854666824       -0.1435999527
Br              -0.2056300389        0.2056300389       -0.1179893712
Br              -0.2056300389       -0.2932707066       -0.1179893712
Br               0.2932707066        0.2056300389       -0.1179893712
Br               0.2056300389       -0.2056300389        0.1179893712
Br               0.2056300389        0.2932707066        0.1179893712
Br              -0.2932707066       -0.2056300389        0.1179893712
Br              -0.2854666824        0.2854666824        0.1435999527
Br              -0.3819181500        0.3819181500        0.3636003090
Br              -0.3819181500       -0.1274366089        0.3636003090
Br               0.1274366089        0.3819181500        0.3636003090
Br               0.1349645771       -0.1349645771        0.4048937314

