1_NbF                                   
   1.0000000000000000     
    5.11245879008615      2.95167945867711      0.00000000000000
   -5.11245879008615      2.95167945867711      0.00000000000000
    0.00000000000000      0.00000000000000     24.30205686692268
  Nb              F             
6  16  
Direct
    0.14554848613390    -0.14554848613390    -0.10008286567020
    0.14554848613390     0.29109697226780    -0.10008286567020
   -0.29109697226780    -0.14554848613390    -0.10008286567020
   -0.14554848613390     0.14554848613390     0.10008286567020
   -0.14554848613390    -0.29109697226780     0.10008286567020
    0.29109697226780     0.14554848613390     0.10008286567020
    0.00000000000000     0.00000000000000    -0.16416618706410
    0.49470985919160    -0.49470985919160    -0.14493470706880
    0.49470985919160    -0.01058028161690    -0.14493470706880
    0.01058028161690    -0.49470985919160    -0.14493470706880
    0.33333333333330    -0.33333333333330    -0.05376469541070
   -0.16379637208680     0.16379637208680    -0.04547511505260
   -0.16379637208680    -0.32759274417360    -0.04547511505260
    0.32759274417360     0.16379637208680    -0.04547511505260
    0.16379637208680    -0.16379637208680     0.04547511505260
    0.16379637208680     0.32759274417360     0.04547511505260
   -0.32759274417360    -0.16379637208680     0.04547511505260
   -0.33333333333330     0.33333333333330     0.05376469541070
   -0.49470985919160     0.49470985919160     0.14493470706880
   -0.49470985919160     0.01058028161690     0.14493470706880
   -0.01058028161690     0.49470985919160     0.14493470706880
    0.00000000000000     0.00000000000000     0.16416618706410
