  SYSTEM = NbI
    PREC = Accurate
   ENCUT = 350
  ISMEAR = 0
   SIGMA = 0.05
   NCORE = 8
    LVDW = .TRUE.
    IVDW = 11
  NBANDS = 288
   NEDOS = 2000
  LORBIT = 11
 LOPTICS = .TRUE.
