K-Points 
0 # automatic generation of k-points
Gamma point
6  6  1
