3b_NbBr                                 
   1.0000000000000000     
    6.60840400789183      3.81536383287015      0.00000000000000
   -6.60840400789183      3.81536383287015      0.00000000000000
    0.00000000000000      0.00000000000000     34.36677835415921
  Nb              I            
6  16  
Direct
    0.13094573848930    -0.13094573848930    -0.10125933217760
    0.13094573848930     0.26189147697850    -0.10125933217760
   -0.26189147697850    -0.13094573848930    -0.10125933217760
   -0.13094573848930     0.13094573848930     0.10125933217760
   -0.13094573848930    -0.26189147697850     0.10125933217760
    0.26189147697850     0.13094573848930     0.10125933217760
    0.00000000000000     0.00000000000000    -0.16309901317850
   -0.49594290452140     0.49594290452140    -0.14565940251570
   -0.49594290452140     0.00811419095710    -0.14565940251570
   -0.00811419095710     0.49594290452140    -0.14565940251570
    0.33333333333330    -0.33333333333330    -0.05890147519130
   -0.16683617165560     0.16683617165560    -0.04660645446780
   -0.16683617165560    -0.33367234331120    -0.04660645446780
    0.33367234331120     0.16683617165560    -0.04660645446780
    0.16683617165560    -0.16683617165560     0.04660645446780
    0.16683617165560     0.33367234331120     0.04660645446780
   -0.33367234331120    -0.16683617165560     0.04660645446780
   -0.33333333333330     0.33333333333330     0.05890147519130
    0.49594290452140    -0.49594290452140     0.14565940251570
    0.49594290452140    -0.00811419095710     0.14565940251570
    0.00811419095710    -0.49594290452140     0.14565940251570
    0.00000000000000     0.00000000000000     0.16309901317850
