&CONTROL
   calculation      = 'relax'
   !restart_mode     = 'from_scratch'
   verbosity        = 'high'
   outdir           = './out'
   prefix           = 'Nb3F8'
   pseudo_dir       = '/scratch-shared/mroesner/Nb3X8_cDFPT/pp'
   tprnfor          = .true.
   tstress          = .true.
   forc_conv_thr    = 1.0D-6     ! default: 1.0D-3
/
&SYSTEM
   ibrav            = 0
   nat              = 22
   ntyp             = 2
   ecutwfc          = 100.0
   occupations      = 'smearing'
   degauss          = 0.0036749293
   smearing         = 'marzari-vanderbilt'
   input_dft        = 'pbe'
   vdw_corr         = 'grimme-d3'
   dftd3_threebody  = .false.
   !nr1              = 180
   !nr2              = 180
   !nr3              = 180
/
&ELECTRONS
    conv_thr        = 1e-12
    diago_full_acc  = .true.
/
&IONS
   ion_dynamics      = 'damp'
   !bfgs_ndim         = 5
   pot_extrapolation = 'second_order' 
   wfc_extrapolation = 'second_order'
/
&CELL
/
&FCP
/
&RISM
/
ATOMIC_SPECIES
Nb 92.90637 Nb_ONCV_PBE-1.2.upf
F  18.99840 F_ONCV_PBE-1.2.upf

K_POINTS automatic
6 6 1  0 0 0

CELL_PARAMETERS angstrom
    5.11245879008615      2.95167945867711      0.00000000000000
   -5.11245879008615      2.95167945867711      0.00000000000000
    0.00000000000000      0.00000000000000     24.30205686692268

ATOMIC_POSITIONS (crystal)
Nb    0.14554848613390    -0.14554848613390    -0.10008286567020
Nb    0.14554848613390     0.29109697226780    -0.10008286567020
Nb   -0.29109697226780    -0.14554848613390    -0.10008286567020
Nb   -0.14554848613390     0.14554848613390     0.10008286567020
Nb   -0.14554848613390    -0.29109697226780     0.10008286567020
Nb    0.29109697226780     0.14554848613390     0.10008286567020
F    0.00000000000000     0.00000000000000    -0.16416618706410
F    0.49470985919160    -0.49470985919160    -0.14493470706880
F    0.49470985919160    -0.01058028161690    -0.14493470706880
F    0.01058028161690    -0.49470985919160    -0.14493470706880
F    0.33333333333330    -0.33333333333330    -0.05376469541070
F   -0.16379637208680     0.16379637208680    -0.04547511505260
F   -0.16379637208680    -0.32759274417360    -0.04547511505260
F    0.32759274417360     0.16379637208680    -0.04547511505260
F    0.16379637208680    -0.16379637208680     0.04547511505260
F    0.16379637208680     0.32759274417360     0.04547511505260
F   -0.32759274417360    -0.16379637208680     0.04547511505260
F   -0.33333333333330     0.33333333333330     0.05376469541070
F   -0.49470985919160     0.49470985919160     0.14493470706880
F   -0.49470985919160     0.01058028161690     0.14493470706880
F   -0.01058028161690     0.49470985919160     0.14493470706880
F    0.00000000000000     0.00000000000000     0.16416618706410

