Nb3F8
&INPUT
    prefix = 'Nb3F8'
    outdir = './out'
/
