&CONTROL
   calculation      = 'scf',
   verbosity        = 'high'
   outdir           = './out'
   prefix           = 'Nb3F8'
   tprnfor          = .true.
   tstress          = .true.
   pseudo_dir       = '/scratch-shared/mroesner/Nb3X8_cDFPT/pp'
/
&SYSTEM
   ibrav            = 0
   nat              = 11
   ntyp             = 2
   ecutwfc          = 100.0
   occupations      = 'smearing'
   degauss          = 0.0036749293
   smearing         = 'gaussian'
   input_dft        = 'pbe'
   vdw_corr         = 'grimme-d3'
   dftd3_threebody  = .false.,
   !nr1              = 180,
   !nr2              = 180,
   !nr3              = 180,
/
&ELECTRONS
   conv_thr         = 1e-12
    diago_full_acc  = .true.
/
&IONS
/
&CELL
/
&FCP
/
&RISM
/
ATOMIC_SPECIES
Nb 92.90637 Nb_ONCV_PBE-1.2.upf
F  18.99840 F_ONCV_PBE-1.2.upf

K_POINTS automatic
6 6 1  0 0 0

CELL_PARAMETERS (angstrom)
   5.112458790   2.951679459   0.000000000
  -5.112458790   2.951679459   0.000000000
   0.000000000   0.000000000  24.302056867

ATOMIC_POSITIONS (crystal)
Nb               0.1455207614       -0.1455207614       -0.1040737390
Nb               0.1455207614        0.2910415226       -0.1040737390
Nb              -0.2910415226       -0.1455207614       -0.1040737390
F               -0.0000000000        0.0000000000       -0.1688214952
F                0.4929826507       -0.4929826507       -0.1494370883
F                0.4929826507       -0.0140346986       -0.1494370883
F                0.0140346986       -0.4929826507       -0.1494370883
F                0.3333333333       -0.3333333333       -0.0570762347
F               -0.1600599540        0.1600599540       -0.0482760075
F               -0.1600599540       -0.3201199079       -0.0482760075
F                0.3201199079        0.1600599540       -0.0482760075

