&CONTROL
   calculation      = 'vc-relax'
   !restart_mode     = 'from_scratch'
   verbosity        = 'high'
   outdir           = './out'
   prefix           = 'Nb3Br8'
   pseudo_dir       = '/scratch-shared/mroesner/Nb3X8_cDFPT/pp'
   tprnfor          = .true.
   tstress          = .true.
   forc_conv_thr    = 1.0D-6     ! default: 1.0D-3
/
&SYSTEM
   ibrav            = 0
   nat              = 22
   ntyp             = 2
   ecutwfc          = 100.0
   occupations      = 'smearing'
   degauss          = 0.0036749293
   smearing         = 'marzari-vanderbilt'
   input_dft        = 'pbe'
   vdw_corr         = 'grimme-d3'
   dftd3_threebody  = .false.
   !nr1              = 180
   !nr2              = 180
   !nr3              = 180
/
&ELECTRONS
    conv_thr        = 1e-12
    diago_full_acc  = .true.
/
&IONS
   !ion_dynamics      = 'damp'
   !bfgs_ndim         = 5
   !pot_extrapolation = 'second_order' 
   !wfc_extrapolation = 'second_order'
/
&CELL
   cell_dofree = 'all'
/
&FCP
/
&RISM
/
ATOMIC_SPECIES
Nb 92.90637 Nb_ONCV_PBE-1.2.upf
Br 79.904   Br_ONCV_PBE-1.2.upf

K_POINTS automatic
6 6 6  0 0 0

CELL_PARAMETERS angstrom
     6.1380278737426544    3.5437920451987477    0.0000000000000000
    -6.1380278737426544    3.5437920451987477    0.0000000000000000
    -4.0920185824951023    0.0000000000000000   12.9312624104875322

ATOMIC_POSITIONS (crystal)
Nb  0.0506854674583549   -0.0506854674583690   -0.2527197890660131
Nb  0.0506854674583691    0.3540907239827301   -0.2527197890660131
Nb -0.3540907239827302   -0.0506854674583548   -0.2527197890660131
Nb -0.0506854674583549    0.0506854674583692    0.2527197890660132
Nb -0.0506854674583691   -0.3540907239827301    0.2527197890660132
Nb  0.3540907239827300    0.0506854674583549    0.2527197890660132
Br -0.1350352999899643    0.1350352999899644   -0.4051058999698929
Br  0.3819244802981275   -0.3819244802981487   -0.3640575434071002
Br  0.3819244802981488    0.1279065040033769   -0.3640575434071002
Br -0.1279065040033766   -0.3819244802981274   -0.3640575434071002
Br  0.2856346626261943   -0.2856346626261940   -0.1430960121214102
Br -0.2056192015594434    0.2056192015594580   -0.1176103122604492
Br -0.2056192015594576   -0.2936280908584517   -0.1176103122604492
Br  0.2936280908584522    0.2056192015594437   -0.1176103122604492
Br  0.2056192015594437   -0.2056192015594575    0.1176103122604497
Br  0.2056192015594579    0.2936280908584523    0.1176103122604497
Br -0.2936280908584517   -0.2056192015594434    0.1176103122604497
Br -0.2856346626261941    0.2856346626261944    0.1430960121214105
Br -0.3819244802981275    0.3819244802981489    0.3640575434071004
Br -0.3819244802981488   -0.1279065040033766    0.3640575434071004
Br  0.1279065040033769    0.3819244802981276    0.3640575434071004
Br  0.1350352999899643   -0.1350352999899642    0.4051058999698934

