SYSTEM = NbF
PREC = Normal
ENCUT = 350
ISMEAR = 0
SIGMA = 0.05
NEDOS = 2000
LORBIT = 11
SYMPREC = 0.000001
NPAR = 8
NBANDS = 256
LOPTICS = .TRUE.
