Nb3F8
1.00000000000000     
 0.0000000000000000  -4.0617908900860140   4.0617908900860140
 4.0617908900860140   0.0000000000000000  -4.0617908900860140
 7.0374185519162300   7.0374185519162300   2.9756276618302150
   Nb   F 
     6    16
Direct
  0.5655355588661629  0.4344644411338366  0.2497889401555385
  0.5655355588661629  0.8812821775767877  0.2497889401555386
  0.1187178224232120  0.4344644411338366  0.2497889401555385
  0.4344644411338366  0.5655355588661629  0.7502110598444688
  0.4344644411338366  0.1187178224232120  0.7502110598444688
  0.8812821775767877  0.5655355588661629  0.7502110598444688
  0.3631872563304450  0.6368127436695616  0.0895617690913299
  0.6368127436695616  0.3631872563304450  0.9104382309086698
  0.8759577529135271  0.1240422470864724  0.1310337223743704
  0.8759577529135271  0.6208817834526917  0.1310337223743704
  0.3791182165473084  0.1240422470864724  0.1310337223743704
  0.1240422470864724  0.8759577529135271  0.8689662776256367
  0.1240422470864724  0.3791182165473084  0.8689662776256367
  0.6208817834526917  0.8759577529135271  0.8689662776256367
  0.7917054001200065  0.2082945998799934  0.3751162002600535
  0.2082945998799934  0.7917054001200065  0.6248837997399462
  0.2936185767755079  0.7063814232244987  0.3868742772264571
  0.2936185767755079  0.2003628763245806  0.3868742772264571
  0.7996371236754268  0.7063814232244987  0.3868742772264571
  0.7063814232244987  0.2936185767755079  0.6131257227735364
  0.7063814232244987  0.7996371236754268  0.6131257227735364
  0.2003628763245806  0.2936185767755079  0.6131257227735364
 
  0.00000000E+00  0.00000000E+00  0.00000000E+00
  0.00000000E+00  0.00000000E+00  0.00000000E+00
  0.00000000E+00  0.00000000E+00  0.00000000E+00
  0.00000000E+00  0.00000000E+00  0.00000000E+00
  0.00000000E+00  0.00000000E+00  0.00000000E+00
  0.00000000E+00  0.00000000E+00  0.00000000E+00
  0.00000000E+00  0.00000000E+00  0.00000000E+00
  0.00000000E+00  0.00000000E+00  0.00000000E+00
  0.00000000E+00  0.00000000E+00  0.00000000E+00
  0.00000000E+00  0.00000000E+00  0.00000000E+00
  0.00000000E+00  0.00000000E+00  0.00000000E+00
  0.00000000E+00  0.00000000E+00  0.00000000E+00
  0.00000000E+00  0.00000000E+00  0.00000000E+00
  0.00000000E+00  0.00000000E+00  0.00000000E+00
  0.00000000E+00  0.00000000E+00  0.00000000E+00
  0.00000000E+00  0.00000000E+00  0.00000000E+00
  0.00000000E+00  0.00000000E+00  0.00000000E+00
  0.00000000E+00  0.00000000E+00  0.00000000E+00
  0.00000000E+00  0.00000000E+00  0.00000000E+00
  0.00000000E+00  0.00000000E+00  0.00000000E+00
  0.00000000E+00  0.00000000E+00  0.00000000E+00
  0.00000000E+00  0.00000000E+00  0.00000000E+00
