 num_wann =    2  ! set to NBANDS by VASP
 num_bands =  256

begin projections
f=0.4148492,0.5851508,0.2445475:s
f=0.5851508,0.4148492,0.7554525:s
end projections

search_shells=36

dis_num_iter = 10000
dis_conv_tol = 1.0e-13



dis_froz_max= 4
dis_froz_min= 3

conv_tol          = 1.0E-13
num_iter          = 10000
num_print_cycles  = 100
translate_home_cell = true
##wannier_plot_supercell = 3 3 3

##wannier_plot = true
hr_plot = true
bands_plot = true
begin kpoint_path
G      0.000000000000   0.000000000000   0.000000000000       M      0.512626262650   0.000000000000  -0.170886075950
M      0.512626262650   0.000000000000  -0.170886075950       K      0.341772151900   0.341772151900   0.000000000000
K      0.341772151900   0.341772151900   0.000000000000       G      0.000000000000   0.000000000000   0.000000000000
G      0.000000000000   0.000000000000   0.000000000000       A      0.000000000000   0.000000000000   0.500000000000
A      0.000000000000   0.000000000000   0.500000000000       L      0.474747474700   0.000000000000   0.341772151900
L      0.474747474700   0.000000000000   0.341772151900       G      0.000000000000   0.000000000000   0.000000000000
G      0.000000000000   0.000000000000   0.000000000000       H      0.316519626600   0.316519626600   0.500000000000
end kpoint_path

use_bloch_phases = F
