System = Nb3Cl8
SIGMA = 0.05
ISMEAR = 1
NEDOS = 2000
LORBIT = 11
SYMPREC = 0.000001
NPAR = 8
NBANDS = 160
LOPTICS = .TRUE.
