SYSTEM = Nb3Cl8
PREC = Normal
ENCUT = 350
ISMEAR = 0
SIGMA = 0.05
NEDOS = 2000
LORBIT = 11
SYMPREC = 0.000001
NBANDS = 160
ALGO = CRPA
NTARGET_STATES = 1 2
NCSHMEM = 1
LPROJECTED = .TRUE.
