K-Points 
0 # automatic generation of k-points
Gamma point
8  8  4
