Nb3Cl8
1.0
0.00000000  4.76990193  -4.76990193
-4.76990193  0.00000000  4.76990193
5.48257349  5.48257349  10.25247542
Nb   Cl
6  16
Direct
0.360500  0.221000  0.000000
0.779000  0.639500  0.000000
0.360500  0.639500  0.000000
0.808087  0.607543  0.508570
0.392457  0.191973  0.508570
0.808027  0.191913  0.508570
0.450790  0.549210  0.852370
0.958790  0.041210  0.887470
0.958790  0.530110  0.887470
0.469890  0.041210  0.887470
0.205337  0.794663  0.116010
0.209930  0.289070  0.131490
0.710930  0.289370  0.131490
0.710630  0.790070  0.131490
0.459357  0.541143  0.372370
0.458857  0.045843  0.372370
0.954157  0.540643  0.372370
0.967496  0.032504  0.402487
0.206357  0.296843  0.615670
0.206157  0.793643  0.615670
0.703157  0.793843  0.615670
0.718773  0.281227  0.656320
