 num_wann =    2  ! set to NBANDS by VASP
 num_bands =  MYNBANDS

begin projections
f=0.5,0.5,0.0:s
f=0.66952333,0.33047667,0.50857:s
end projections

search_shells=36

dis_num_iter = 10000
dis_conv_tol = 1.0e-13


dis_froz_max= 4.5
dis_froz_min= 3.8

conv_tol          = 1.0E-13
num_iter          = 10000
num_print_cycles  = 100
translate_home_cell = true
#wannier_plot_supercell = 3 3 3

wannier_plot = false
hr_plot = true
bands_plot = true
begin kpoint_path
G  0.00000000  0.00000000  0.00000000       M  0.51265823  0.00000000 -0.17088608
M  0.51265823  0.00000000 -0.17088608       K  0.34177215  0.34177215  0.00000000
K  0.34177215  0.34177215  0.00000000       G  0.00000000  0.00000000  0.00000000
G  0.00000000  0.00000000  0.00000000       A  0.00000000  0.00000000  0.50000000
A  0.00000000  0.00000000  0.50000000       L  0.47468354  0.00000000  0.34177215
L  0.47468354  0.00000000  0.34177215       G  0.00000000  0.00000000  0.00000000
G  0.00000000  0.00000000  0.00000000       H  0.31645570  0.31645570  0.50000000
end kpoint_path

use_bloch_phases = F
