&CONTROL
   calculation      = 'relax'
   !restart_mode     = 'from_scratch'
   verbosity        = 'high'
   outdir           = './out'
   prefix           = 'Nb3F8'
   pseudo_dir       = '/scratch-shared/mroesner/Nb3X8_cDFPT/pp'
   tprnfor          = .true.
   tstress          = .true.
   forc_conv_thr    = 1.0D-6     ! default: 1.0D-3
/
&SYSTEM
   ibrav            = 0
   nat              = 22
   ntyp             = 2
   ecutwfc          = 100.0
   occupations      = 'smearing'
   degauss          = 0.0036749293
   smearing         = 'marzari-vanderbilt'
   input_dft        = 'pbe'
   vdw_corr         = 'grimme-d3'
   dftd3_threebody  = .false.
   !nr1              = 180
   !nr2              = 180
   !nr3              = 180
/
&ELECTRONS
    conv_thr        = 1e-12
    diago_full_acc  = .true.
/
&IONS
   ion_dynamics      = 'damp'
   !bfgs_ndim         = 5
   pot_extrapolation = 'second_order' 
   wfc_extrapolation = 'second_order'
/
&CELL
/
&FCP
/
&RISM
/
ATOMIC_SPECIES
Nb 92.90637 Nb_ONCV_PBE-1.2.upf
F  18.99840 F_ONCV_PBE-1.2.upf

K_POINTS automatic
6 6 6  0 0 0

CELL_PARAMETERS angstrom
     5.1124587900861469    2.9516794586771060    0.0000000000000000
    -5.1124587900861469    2.9516794586771060    0.0000000000000000
    -3.4083058600574323    0.0000000000000000    9.7208227467690715

ATOMIC_POSITIONS (crystal)
Nb               0.0622773705       -0.0622773606       -0.2499965373
Nb               0.0622773606        0.3745512684       -0.2499965373
Nb              -0.3745512684       -0.0622773705       -0.2499965373
Nb              -0.0622773705        0.0622773606        0.2499965373
Nb              -0.0622773606       -0.3745512684        0.2499965373
Nb               0.3745512684        0.0622773705        0.2499965373
F               -0.1367612579        0.1367612579       -0.4102837737
F                0.3741641723       -0.3741641625       -0.3618281771
F                0.3741641625        0.1101565118       -0.3618281771
F               -0.1101565118       -0.3741641723       -0.3618281771
F                0.2885344995       -0.2885344995       -0.1343965016
F               -0.2015769143        0.2015769241       -0.1135417592
F               -0.2015769241       -0.2896120792       -0.1135417592
F                0.2896120792        0.2015769143       -0.1135417592
F                0.2015769143       -0.2015769241        0.1135417592
F                0.2015769241        0.2896120792        0.1135417592
F               -0.2896120792       -0.2015769143        0.1135417592
F               -0.2885344995        0.2885344995        0.1343965016
F               -0.3741641723        0.3741641625        0.3618281771
F               -0.3741641625       -0.1101565118        0.3618281771
F                0.1101565118        0.3741641723        0.3618281771
F                0.1367612579       -0.1367612579        0.4102837737
