&CONTROL
   calculation      = 'relax'
   !restart_mode     = 'from_scratch'
   verbosity        = 'high'
   outdir           = './out'
   prefix           = 'Nb3Cl8'
   pseudo_dir       = '/scratch-shared/mroesner/Nb3X8_cDFPT/pp'
   tprnfor          = .true.
   tstress          = .true.
   forc_conv_thr    = 1.0D-6     ! default: 1.0D-3
/
&SYSTEM
   ibrav            = 0
   nat              = 22
   ntyp             = 2
   ecutwfc          = 100.0
   occupations      = 'smearing'
   degauss          = 0.0036749293
   smearing         = 'marzari-vanderbilt'
   input_dft        = 'pbe'
   vdw_corr         = 'grimme-d3'
   dftd3_threebody  = .false.
   !nr1              = 180
   !nr2              = 180
   !nr3              = 180
/
&ELECTRONS
    conv_thr        = 1e-12
    diago_full_acc  = .true.
/
&IONS
   ion_dynamics      = 'damp'
   !bfgs_ndim         = 5
   pot_extrapolation = 'second_order' 
   wfc_extrapolation = 'second_order'
/
&CELL
/
&FCP
/
&RISM
/
ATOMIC_SPECIES
Nb 92.90637 Nb_ONCV_PBE-1.2.upf
Cl 35.45270 Cl_ONCV_PBE-1.2.upf

K_POINTS automatic
6 6 1  0 0 0

CELL_PARAMETERS angstrom
    5.83335522276699      3.36788920814323      0.00000000000000
   -5.83335522276699      3.36788920814323      0.00000000000000
    0.00000000000000      0.00000000000000     30.69897123873575

ATOMIC_POSITIONS (crystal)
Nb    0.13857895356130    -0.13857895356130    -0.10099214791950
Nb    0.13857895356130     0.27715790712260    -0.10099214791950
Nb   -0.27715790712260    -0.13857895356130    -0.10099214791950
Nb   -0.13857895356130     0.13857895356130     0.10099214791950
Nb   -0.13857895356130    -0.27715790712260     0.10099214791950
Nb    0.27715790712260     0.13857895356130     0.10099214791950
Cl    0.00000000000000     0.00000000000000    -0.16042139939390
Cl   -0.49808501300700     0.49808501300700    -0.14527837873060
Cl   -0.49808501300700     0.00382997398610    -0.14527837873060
Cl   -0.00382997398610     0.49808501300700    -0.14527837873060
Cl    0.33333333333330    -0.33333333333330    -0.05668903828000
Cl   -0.16521437378700     0.16521437378700    -0.04769840215240
Cl   -0.16521437378700    -0.33042874757410    -0.04769840215240
Cl    0.33042874757410     0.16521437378700    -0.04769840215240
Cl    0.16521437378700    -0.16521437378700     0.04769840215240
Cl    0.16521437378700     0.33042874757410     0.04769840215240
Cl   -0.33042874757410    -0.16521437378700     0.04769840215240
Cl   -0.33333333333330     0.33333333333330     0.05668903828000
Cl    0.49808501300700    -0.49808501300700     0.14527837873060
Cl    0.49808501300700    -0.00382997398610     0.14527837873060
Cl    0.00382997398610    -0.49808501300700     0.14527837873060
Cl    0.00000000000000     0.00000000000000     0.16042139939390

