2_NbCl                                  
   1.0000000000000000     
    5.83335522276699      3.36788920814323      0.00000000000000
   -5.83335522276699      3.36788920814323      0.00000000000000
    0.00000000000000      0.00000000000000     24.55917699098860
  Nb              Cl            
3  8  
Direct
   -0.13857895356130     0.13857895356130     0.12624018489930
   -0.13857895356130    -0.27715790712260     0.12624018489930
    0.27715790712260     0.13857895356130     0.12624018489930
    0.16521437378700    -0.16521437378700     0.05962300269050
    0.16521437378700     0.33042874757410     0.05962300269050
   -0.33042874757410    -0.16521437378700     0.05962300269050
   -0.33333333333330     0.33333333333330     0.07086129785000
    0.49808501300700    -0.49808501300700     0.18159797341330
    0.49808501300700    -0.00382997398610     0.18159797341330
    0.00382997398610    -0.49808501300700     0.18159797341330
    0.00000000000000     0.00000000000000     0.20052674924240
