3b_NbI                                
   1.0000000000000000     
    6.60840400789183      3.81536383287015      0.00000000000000
   -6.60840400789183      3.81536383287015      0.00000000000000
    0.00000000000000      0.00000000000000     27.49342268332737
  Nb              I           
3  8  
Direct
   -0.13094573848930     0.13094573848930     0.12657416522200
   -0.13094573848930    -0.26189147697850     0.12657416522200
    0.26189147697850     0.13094573848930     0.12657416522200
    0.16683617165560    -0.16683617165560     0.05825806808480
    0.16683617165560     0.33367234331120     0.05825806808480
   -0.33367234331120    -0.16683617165560     0.05825806808480
   -0.33333333333330     0.33333333333330     0.07362684398920
    0.49594290452140    -0.49594290452140     0.18207425314460
    0.49594290452140    -0.00811419095710     0.18207425314460
    0.00811419095710    -0.49594290452140     0.18207425314460
    0.00000000000000     0.00000000000000     0.20387376647310
