&CONTROL
   calculation      = 'relax'
   !restart_mode     = 'from_scratch'
   verbosity        = 'high'
   outdir           = './out'
   prefix           = 'Nb3Cl8'
   pseudo_dir       = '/scratch-shared/mroesner/Nb3X8_cDFPT/pp'
   tprnfor          = .true.
   tstress          = .true.
   forc_conv_thr    = 1.0D-6     ! default: 1.0D-3
/
&SYSTEM
   ibrav            = 0
   nat              = 11
   ntyp             = 2
   ecutwfc          = 100.0
   occupations      = 'smearing'
   degauss          = 0.0036749293
   smearing         = 'marzari-vanderbilt'
   input_dft        = 'pbe'
   vdw_corr         = 'grimme-d3'
   dftd3_threebody  = .false.
   !nr1              = 180
   !nr2              = 180
   !nr3              = 180
/
&ELECTRONS
    conv_thr        = 1e-12
    diago_full_acc  = .true.
/
&IONS
   ion_dynamics      = 'damp'
   !bfgs_ndim         = 5
   pot_extrapolation = 'second_order' 
   wfc_extrapolation = 'second_order'
/
&CELL
/
&FCP
/
&RISM
/
ATOMIC_SPECIES
Nb 92.90637 Nb_ONCV_PBE-1.2.upf
Cl 35.45270 Cl_ONCV_PBE-1.2.upf

K_POINTS automatic
6 6 1  0 0 0

CELL_PARAMETERS angstrom
    5.83335522276699      3.36788920814323      0.00000000000000
   -5.83335522276699      3.36788920814323      0.00000000000000
    0.00000000000000      0.00000000000000     30.69897123873575

ATOMIC_POSITIONS (crystal)
Nb              -0.1385203417        0.1385203417        0.1015446864
Nb              -0.1385203417       -0.2770406835        0.1015446864
Nb               0.2770406835        0.1385203417        0.1015446864
Cl               0.1653188021       -0.1653188021        0.0480550945
Cl               0.1653188021        0.3306376043        0.0480550945
Cl              -0.3306376043       -0.1653188021        0.0480550945
Cl              -0.3333333333        0.3333333333        0.0570331600
Cl               0.4987912784       -0.4987912784        0.1461780446
Cl               0.4987912784       -0.0024174433        0.1461780446
Cl               0.0024174433       -0.4987912784        0.1461780446
Cl               0.0000000000        0.0000000000        0.1617118246


