3a_NbBr                                 
   1.0000000000000000     
    6.13802787374265      3.54379204519875      0.00000000000000
   -6.13802787374265      3.54379204519875      0.00000000000000
    0.00000000000000      0.00000000000000     32.32815602621883
  Nb              Br            
6  16  
Direct
    0.13492539714700    -0.13492539714700    -0.10108791562640
    0.13492539714700     0.26985079429410    -0.10108791562640
   -0.26985079429410    -0.13492539714700    -0.10108791562640
   -0.13492539714700     0.13492539714700     0.10108791562640
   -0.13492539714700    -0.26985079429410     0.10108791562640
    0.26985079429410     0.13492539714700     0.10108791562640
    0.00000000000000     0.00000000000000    -0.16204235998800
   -0.49672300523280     0.49672300523280    -0.14562301736280
   -0.49672300523280     0.00655398953430    -0.14562301736280
   -0.00655398953430     0.49672300523280    -0.14562301736280
    0.33333333333330    -0.33333333333330    -0.05723840484860
   -0.16641576413930     0.16641576413930    -0.04704412490420
   -0.16641576413930    -0.33283152827860    -0.04704412490420
    0.33283152827860     0.16641576413930    -0.04704412490420
    0.16641576413930    -0.16641576413930     0.04704412490420
    0.16641576413930     0.33283152827860     0.04704412490420
   -0.33283152827860    -0.16641576413930     0.04704412490420
   -0.33333333333330     0.33333333333330     0.05723840484860
    0.49672300523280    -0.49672300523280     0.14562301736280
    0.49672300523280    -0.00655398953430     0.14562301736280
    0.00655398953430    -0.49672300523280     0.14562301736280
    0.00000000000000     0.00000000000000     0.16204235998800
