1_NbF                                   
   1.0000000000000000     
     5.1124587900861469    2.9516794586771060    0.0000000000000000
    -5.1124587900861469    2.9516794586771060    0.0000000000000000
    -3.4083058600574323    0.0000000000000000    9.7208227467690715
  Nb              F             
     6    16
Direct
  0.0621461029840644   -0.0621460931666728   -0.2502071641755519
  0.0621460931666731    0.3744993603262886   -0.2502071641755519
 -0.3744993603262891   -0.0621461029840641   -0.2502071641755519
 -0.0621461029840641    0.0621460931666731    0.2502071641755519
 -0.0621460931666728   -0.3744993603262891    0.2502071641755519
  0.3744993603262886    0.0621461029840644    0.2502071641755519
 -0.1368051558867402    0.1368051558867399   -0.4104154676602206
  0.3739309415427605   -0.3739309317256033   -0.3623367676721221
  0.3739309317256037    0.1101986409404856   -0.3623367676721221
 -0.1101986409404857   -0.3739309415427602   -0.3623367676721221
  0.2885294204910861   -0.2885294204910864   -0.1344117385267482
 -0.2016922963886456    0.2016923062059517   -0.1136877876315500
 -0.2016923062059516   -0.2896968149630471   -0.1136877876315500
  0.2896968149630470    0.2016922963886456   -0.1136877876315500
  0.2016922963886456   -0.2016923062059516    0.1136877876315504
  0.2016923062059517    0.2896968149630470    0.1136877876315504
 -0.2896968149630471   -0.2016922963886456    0.1136877876315504
 -0.2885294204910864    0.2885294204910861    0.1344117385267481
 -0.3739309415427602    0.3739309317256037    0.3623367676721220
 -0.3739309317256033   -0.1101986409404857    0.3623367676721220
  0.1101986409404856    0.3739309415427605    0.3623367676721220
  0.1368051558867399   -0.1368051558867402    0.4104154676602211
