SYSTEM = NbBr
PREC = Normal
ENCUT = 350
IBRION = -1
NSW = 0
ISIF = 2
NELMIN = 5
EDIFF = 1.0e-05
NELM = 60
ALGO = Normal (blocked Davidson)
ISTART = 1
ICHARG = 11
LWAVE = .False.
LCHARG = .False.
ADDGRID = .FALSE.
ISMEAR = 0
SIGMA = 0.05
ISPIN = 1
LREAL = .False.
NCORE = 8
LORBIT = 11
NBANDS = 320
LOPTICS = .TRUE.
