SYSTEM = NbBr
PREC = Normal
ENCUT = 350
ISMEAR = 0
SIGMA = 0.05
ISPIN = 1
LORBIT = 11
NBANDS = 320
ALGO = CRPA
NTARGET_STATES = 1 2
NCSHMEM = 1
LPROJECTED = .TRUE.




