K-Points 
0 # automatic generation of k-points
Gamma point
7 7 7
