Nb3Br8-prim
1.0
 6.130325731815  3.539345211483    0.000000000000
-6.130325731815  3.539345211483    0.000000000000
-4.086883821210  0.000000000000  12.985664105067
Nb   Br
6  16
Direct
0.143750000000  0.448590000000  0.246570000000
0.551410000000  0.856250000000  0.246570000000
0.551410000000  0.448590000000  0.246570000000
0.856250000000  0.551410000000  0.753430000000
0.448590000000  0.143750000000  0.753430000000
0.448590000000  0.551410000000  0.753430000000
0.706330000000  0.793270000000  0.619390000000
0.706330000000  0.293670000000  0.619390000000
0.206730000000  0.293670000000  0.619390000000
0.293670000000  0.206730000000  0.380610000000
0.293670000000  0.706330000000  0.380610000000
0.793270000000  0.706330000000  0.380610000000
0.118360000000  0.372740000000  0.863980000000
0.118360000000  0.881640000000  0.863980000000
0.627260000000  0.881640000000  0.863980000000
0.881640000000  0.627260000000  0.136020000000
0.881640000000  0.118360000000  0.136020000000
0.372740000000  0.118360000000  0.136020000000
0.214953333333  0.785046666667  0.644860000000
0.785046666667  0.214953333333  0.355140000000
0.634686666667  0.365313333333  0.904060000000
0.365313333333  0.634686666667  0.095940000000


