# This part was generated automatically by VASP
num_bands = 320
num_wann = 2

begin projections  
  f= 0.4155233333333333,  0.5844766666666666,  0.236570000000:s
  f= 0.5844766666666666,  0.4155233333333333,  0.753430000000:s
end projections

kmesh_tol = 0.0001

dis_froz_min = 4.3727
dis_froz_max = 5.3727

guiding_centres = true
num_iter          = 10000

conv_window = 100


conv_tol     = 1.0E-13
use_bloch_phases = false
wannier_plot = false

hr_plot = true
bands_plot = true


begin kpoint_path
G 0.00000000  0.00000000  0.00000000   M 0.51265823  0.00000000 -0.17088608  
M 0.51265823  0.00000000 -0.17088608   K 0.34177215  0.34177215  0.00000000  
K 0.34177215  0.34177215  0.00000000   G 0.00000000  0.00000000  0.00000000  
G 0.00000000  0.00000000  0.00000000   A 0.00000000  0.00000000  0.50000000  
A 0.00000000  0.00000000  0.50000000   L 0.47468354  0.00000000  0.34177215  
L 0.47468354  0.00000000  0.34177215   G 0.00000000  0.00000000  0.00000000  
G 0.00000000  0.00000000  0.00000000   H 0.31645570  0.31645570  0.50000000  
end kpoint_path

