Nb3I8
&INPUT
    prefix = 'Nb3I8'
    outdir = './out'
/
