3a_NbBr                                 
   1.0000000000000000     
     6.1380278737426544    3.5437920451987477    0.0000000000000000
    -6.1380278737426544    3.5437920451987477    0.0000000000000000
    -4.0920185824951023    0.0000000000000000   12.9312624104875322
  Nb              Br            
     6    16
Direct
  0.0506854674583549   -0.0506854674583690   -0.2527197890660131
  0.0506854674583691    0.3540907239827301   -0.2527197890660131
 -0.3540907239827302   -0.0506854674583548   -0.2527197890660131
 -0.0506854674583549    0.0506854674583692    0.2527197890660132
 -0.0506854674583691   -0.3540907239827301    0.2527197890660132
  0.3540907239827300    0.0506854674583549    0.2527197890660132
 -0.1350352999899643    0.1350352999899644   -0.4051058999698929
  0.3819244802981275   -0.3819244802981487   -0.3640575434071002
  0.3819244802981488    0.1279065040033769   -0.3640575434071002
 -0.1279065040033766   -0.3819244802981274   -0.3640575434071002
  0.2856346626261943   -0.2856346626261940   -0.1430960121214102
 -0.2056192015594434    0.2056192015594580   -0.1176103122604492
 -0.2056192015594576   -0.2936280908584517   -0.1176103122604492
  0.2936280908584522    0.2056192015594437   -0.1176103122604492
  0.2056192015594437   -0.2056192015594575    0.1176103122604497
  0.2056192015594579    0.2936280908584523    0.1176103122604497
 -0.2936280908584517   -0.2056192015594434    0.1176103122604497
 -0.2856346626261941    0.2856346626261944    0.1430960121214105
 -0.3819244802981275    0.3819244802981489    0.3640575434071004
 -0.3819244802981488   -0.1279065040033766    0.3640575434071004
  0.1279065040033769    0.3819244802981276    0.3640575434071004
  0.1350352999899643   -0.1350352999899642    0.4051058999698934
