&CONTROL
   calculation      = 'scf',
   verbosity        = 'high'
   outdir           = './out'
   prefix           = 'Nb3I8'
   tprnfor          = .true.
   tstress          = .true.
   pseudo_dir       = '/scratch-shared/mroesner/Nb3X8_cDFPT/pp'
/
&SYSTEM
   ibrav            = 0
   nat              = 22
   ntyp             = 2
   ecutwfc          = 100.0
   occupations      = 'smearing'
   degauss          = 0.0036749293
   smearing         = 'gaussian'
   input_dft        = 'pbe'
   vdw_corr         = 'grimme-d3'
   dftd3_threebody  = .false.,
   !nr1              = 180,
   !nr2              = 180,
   !nr3              = 180,
/
&ELECTRONS
   conv_thr         = 1e-12
    diago_full_acc  = .true.
/
&IONS
/
&CELL
/
&FCP
/
&RISM
/
ATOMIC_SPECIES
Nb 92.90637 Nb_ONCV_PBE-1.2.upf
I 126.90447 I_ONCV_PBE-1.2.upf

K_POINTS automatic
6 6 1  0 0 0

CELL_PARAMETERS (angstrom)
   6.608404008   3.815363833   0.000000000
  -6.608404008   3.815363833   0.000000000
   0.000000000   0.000000000  34.366778354

ATOMIC_POSITIONS (angstrom)
Nb              -9.2825350068        3.8153638329       10.3236420944
Nb              -5.2713385083        1.4994984547       10.3236420944
Nb              -5.2713385083        6.1312292110       10.3236420944
Nb               4.8769330780        3.8153638329        3.4230569807
Nb               0.8657354648        6.1312298544        3.4230569807
Nb               0.8657354648        1.4994978113        3.4230569807
I                2.2028013360        3.8153638329        8.1783307747
I               -4.3506402417        3.8153638329        8.7965276603
I               -1.1288818831        1.9552807774        8.7965276603
I               -1.1288818831        5.6754468883        8.7965276603
I               -6.6084040079        3.8153638329       11.7853314077
I                0.0088017810        3.8153638329       12.2434663197
I               -3.3086028944        5.7306683153       12.2434663197
I               -3.3086028944        1.9000593504       12.2434663197
I               -4.4144045201        3.8153638329        1.5032072254
I               -1.0969997439        1.9000592922        1.5032072254
I               -1.0969997439        5.7306683735        1.5032072254
I                2.2028013360        3.8153638329        1.9612700737
I               -0.0549140103        3.8153638329        4.9502729097
I               -3.2767449988        5.6754888212        4.9502729097
I               -3.2767449988        1.9552388445        4.9502729097
I               -6.6084040079        3.8153638329        5.5683729316

