  SYSTEM = NbCl
    PREC = Accurate
   ENCUT = Ecut
   EDIFF = 1.0e-07
    ALGO = Normal (blocked Davidson)
   LWAVE = .True.
  LCHARG = .TRUE.
 ADDGRID = .FALSE.
  ISMEAR = 0
   SIGMA = 0.05
   ISPIN = 1
   LREAL = False
   NCORE = 4
    LVDW = .TRUE.
    IVDW = 11
  NBANDS = 288
   NEDOS = 2000
  LORBIT = 11
