NbCl-P3m                                
   1.0000000000000000     
     5.8407123883937802    3.3721368669810325    0.0000000000000000
    -5.8407123883937802    3.3721368669810325    0.0000000000000000
     0.0000000000000000    0.0000000000000000   12.2780362850106854
  Nb              Cl            
     6    16
Direct
  0.0279289507828339   -0.4441420984343109   -0.2539749649726922
  0.4441420984343109   -0.0279289507828339   -0.2539749649726922
  0.0279289507828339   -0.0279289507828339   -0.2539749649726922
 -0.0279289507828339    0.4441420984343109    0.2539749649726923
 -0.4441420984343109    0.0279289507828339    0.2539749649726923
 -0.0279289507828339    0.0279289507828339    0.2539749649726923
  0.1666669999999968   -0.1666669999999968   -0.4023836449258663
 -0.3356420228512454   -0.1712840457024908   -0.3636283294725637
 -0.3356420228512454    0.3356420228512456   -0.3636283294725637
  0.1712840457024908    0.3356420228512456   -0.3636283294725637
 -0.1666669999999968    0.1666669999999968   -0.1435096693352849
 -0.1629376931563419   -0.3314688465781745   -0.1201719685215789
  0.3314688465781745   -0.3314688465781745   -0.1201719685215789
  0.3314688465781745    0.1629376931563419   -0.1201719685215789
 -0.3314688465781745   -0.1629376931563419    0.1201719685215790
 -0.3314688465781745    0.3314688465781745    0.1201719685215790
  0.1629376931563419    0.3314688465781745    0.1201719685215790
  0.1666669999999968   -0.1666669999999968    0.1435096693352849
 -0.1712840457024908   -0.3356420228512454    0.3636283294725638
  0.3356420228512456   -0.3356420228512454    0.3636283294725638
  0.3356420228512456    0.1712840457024908    0.3636283294725638
 -0.1666669999999968    0.1666669999999968    0.4023836449258666
