2_NbCl                                  
   1.0000000000000000     
    5.83335522276699      3.36788920814323      0.00000000000000
   -5.83335522276699      3.36788920814323      0.00000000000000
    0.00000000000000      0.00000000000000     30.69897123873575
  Nb              Cl            
6  16  
Direct
    0.13857895356130    -0.13857895356130    -0.10099214791950
    0.13857895356130     0.27715790712260    -0.10099214791950
   -0.27715790712260    -0.13857895356130    -0.10099214791950
   -0.13857895356130     0.13857895356130     0.10099214791950
   -0.13857895356130    -0.27715790712260     0.10099214791950
    0.27715790712260     0.13857895356130     0.10099214791950
    0.00000000000000     0.00000000000000    -0.16042139939390
   -0.49808501300700     0.49808501300700    -0.14527837873060
   -0.49808501300700     0.00382997398610    -0.14527837873060
   -0.00382997398610     0.49808501300700    -0.14527837873060
    0.33333333333330    -0.33333333333330    -0.05668903828000
   -0.16521437378700     0.16521437378700    -0.04769840215240
   -0.16521437378700    -0.33042874757410    -0.04769840215240
    0.33042874757410     0.16521437378700    -0.04769840215240
    0.16521437378700    -0.16521437378700     0.04769840215240
    0.16521437378700     0.33042874757410     0.04769840215240
   -0.33042874757410    -0.16521437378700     0.04769840215240
   -0.33333333333330     0.33333333333330     0.05668903828000
    0.49808501300700    -0.49808501300700     0.14527837873060
    0.49808501300700    -0.00382997398610     0.14527837873060
    0.00382997398610    -0.49808501300700     0.14527837873060
    0.00000000000000     0.00000000000000     0.16042139939390
