num_wann = 2

begin projections
##f=0.4159333333333333,0.5840666666666667,0.2478:s
##f=0.5840666666666667,0.4159333333333333,0.7522:s
c= -2.193931,  3.800000,  3.769611:s
c= -2.193931,  3.800000, 10.135389:s
end projections

search_shells=36



dis_froz_max= 5.87
dis_froz_min= 4.96

conv_tol          = 1.0E-15
dis_conv_tol      = 1.0e-15
num_iter          = 100000
dis_num_iter      = 10000
num_print_cycles  = 100

##guiding_centres = true


##write_hr = true
hr_plot = true
bands_plot = true
begin kpoint_path
G  0.00000000  0.00000000  0.00000000       M  0.51265823  0.00000000 -0.17088608
M  0.51265823  0.00000000 -0.17088608       K  0.34177215  0.34177215  0.00000000
K  0.34177215  0.34177215  0.00000000       G  0.00000000  0.00000000  0.00000000
G  0.00000000  0.00000000  0.00000000       A  0.00000000  0.00000000  0.50000000
A  0.00000000  0.00000000  0.50000000       L  0.47468354  0.00000000  0.34177215
L  0.47468354  0.00000000  0.34177215       G  0.00000000  0.00000000  0.00000000
G  0.00000000  0.00000000  0.00000000       H  0.31645570  0.31645570  0.50000000
end kpoint_path

use_bloch_phases = F

begin unit_cell_cart
     6.5817931     3.8000000     0.0000000
    -6.5817931     3.8000000     0.0000000
    -4.3878620     0.0000000    13.9050000
end unit_cell_cart

begin atoms_cart
Nb      -0.4607255     3.8000000     3.4456590
Nb      -3.0605338     5.3010000     3.4456590
Nb      -3.0605338     2.2990000     3.4456590
Nb      -3.9271365     3.8000000    10.4593410
Nb      -1.3273283     2.2990000    10.4593410
Nb      -1.3273283     5.3010000    10.4593410
I       -6.5817931     3.8000000     9.0187830
I        2.1939310     3.8000000     4.8862170
I       -2.1939310     3.8000000     1.3042890
I       -2.1939310     3.8000000    12.6007110
I       -4.4098014     3.8000000     5.3228340
I       -1.0859959     1.8810000     5.3228340
I       -1.0859959     5.7190000     5.3228340
I        0.0219393     3.8000000     8.5821660
I       -3.3018662     5.7190000     8.5821660
I       -3.3018662     1.8810000     8.5821660
I        4.4361285     3.8000000     1.9022040
I        1.0728323     5.7418000     1.9022040
I        1.0728323     1.8582000     1.9022040
I       -8.8239906     3.8000000    12.0027960
I       -5.4606943     1.8582000    12.0027960
I       -5.4606943     5.7418000    12.0027960
end atoms_cart

mp_grid =    11    11    11

begin kpoints
      0.000000000000      0.000000000000      0.000000000000
      0.090909090909     -0.000000000000      0.000000000000
      0.181818181818     -0.000000000000     -0.000000000000
      0.272727272727      0.000000000000      0.000000000000
      0.363636363636     -0.000000000000      0.000000000000
      0.454545454545      0.000000000000      0.000000000000
      0.090909090909      0.090909090909      0.000000000000
      0.181818181818      0.090909090909     -0.000000000000
      0.272727272727      0.090909090909     -0.000000000000
      0.363636363636      0.090909090909      0.000000000000
      0.454545454545      0.090909090909      0.000000000000
     -0.454545454545      0.090909090909      0.000000000000
     -0.363636363636      0.090909090909      0.000000000000
     -0.272727272727      0.090909090909     -0.000000000000
     -0.181818181818      0.090909090909      0.000000000000
     -0.090909090909      0.090909090909      0.000000000000
      0.181818181818      0.181818181818      0.000000000000
      0.272727272727      0.181818181818      0.000000000000
      0.363636363636      0.181818181818      0.000000000000
      0.454545454545      0.181818181818      0.000000000000
     -0.454545454545      0.181818181818      0.000000000000
     -0.363636363636      0.181818181818      0.000000000000
     -0.272727272727      0.181818181818      0.000000000000
     -0.181818181818      0.181818181818      0.000000000000
      0.272727272727      0.272727272727      0.000000000000
      0.363636363636      0.272727272727      0.000000000000
      0.454545454545      0.272727272727     -0.000000000000
     -0.454545454545      0.272727272727      0.000000000000
     -0.363636363636      0.272727272727      0.000000000000
     -0.272727272727      0.272727272727      0.000000000000
      0.363636363636      0.363636363636      0.000000000000
      0.454545454545      0.363636363636     -0.000000000000
     -0.454545454545      0.363636363636      0.000000000000
     -0.363636363636      0.363636363636     -0.000000000000
      0.454545454545      0.454545454545      0.000000000000
     -0.454545454545      0.454545454545      0.000000000000
      0.000000000000      0.000000000000      0.090909090909
      0.090909090909     -0.000000000000      0.090909090909
      0.181818181818     -0.000000000000      0.090909090909
      0.272727272727      0.000000000000      0.090909090909
      0.363636363636     -0.000000000000      0.090909090909
      0.454545454545      0.000000000000      0.090909090909
     -0.454545454545      0.000000000000      0.090909090909
     -0.363636363636      0.000000000000      0.090909090909
     -0.272727272727      0.000000000000      0.090909090909
     -0.181818181818      0.000000000000      0.090909090909
      0.090909090909      0.181818181818      0.090909090909
      0.181818181818      0.181818181818      0.090909090909
      0.272727272727      0.181818181818      0.090909090909
      0.363636363636      0.181818181818      0.090909090909
      0.090909090909      0.272727272727      0.090909090909
      0.181818181818      0.272727272727      0.090909090909
      0.272727272727      0.272727272727      0.090909090909
      0.363636363636      0.272727272727      0.090909090909
      0.454545454545      0.272727272727      0.090909090909
     -0.454545454545      0.272727272727      0.090909090909
     -0.363636363636      0.272727272727      0.090909090909
     -0.272727272727      0.272727272727      0.090909090909
      0.090909090909      0.363636363636      0.090909090909
      0.181818181818      0.363636363636      0.090909090909
      0.272727272727      0.363636363636      0.090909090909
      0.363636363636      0.363636363636      0.090909090909
      0.454545454545      0.363636363636      0.090909090909
     -0.454545454545      0.363636363636      0.090909090909
     -0.363636363636      0.363636363636      0.090909090909
      0.090909090909      0.454545454545      0.090909090909
      0.181818181818      0.454545454545      0.090909090909
      0.272727272727      0.454545454545      0.090909090909
      0.363636363636      0.454545454545      0.090909090909
      0.454545454545      0.454545454545      0.090909090909
     -0.454545454545      0.454545454545      0.090909090909
      0.090909090909     -0.454545454545      0.090909090909
      0.181818181818     -0.454545454545      0.090909090909
      0.272727272727     -0.454545454545      0.090909090909
      0.363636363636     -0.454545454545      0.090909090909
      0.454545454545     -0.454545454545      0.090909090909
      0.090909090909     -0.363636363636      0.090909090909
      0.181818181818     -0.363636363636      0.090909090909
      0.272727272727     -0.363636363636      0.090909090909
      0.363636363636     -0.363636363636      0.090909090909
      0.090909090909     -0.272727272727      0.090909090909
      0.181818181818     -0.272727272727      0.090909090909
      0.272727272727     -0.272727272727      0.090909090909
      0.090909090909     -0.181818181818      0.090909090909
      0.181818181818     -0.181818181818      0.090909090909
      0.090909090909     -0.090909090909      0.090909090909
      0.000000000000      0.000000000000      0.181818181818
      0.090909090909     -0.000000000000      0.181818181818
      0.181818181818     -0.000000000000      0.181818181818
      0.272727272727      0.000000000000      0.181818181818
      0.363636363636     -0.000000000000      0.181818181818
      0.454545454545      0.000000000000      0.181818181818
     -0.454545454545      0.000000000000      0.181818181818
     -0.363636363636      0.000000000000      0.181818181818
      0.090909090909      0.363636363636      0.181818181818
      0.181818181818      0.363636363636      0.181818181818
      0.272727272727      0.363636363636      0.181818181818
      0.090909090909      0.454545454545      0.181818181818
      0.181818181818      0.454545454545      0.181818181818
      0.272727272727      0.454545454545      0.181818181818
      0.363636363636      0.454545454545      0.181818181818
      0.454545454545      0.454545454545      0.181818181818
     -0.454545454545      0.454545454545      0.181818181818
      0.090909090909     -0.454545454545      0.181818181818
      0.181818181818     -0.454545454545      0.181818181818
      0.272727272727     -0.454545454545      0.181818181818
      0.363636363636     -0.454545454545      0.181818181818
      0.454545454545     -0.454545454545      0.181818181818
      0.090909090909     -0.363636363636      0.181818181818
      0.181818181818     -0.363636363636      0.181818181818
      0.272727272727     -0.363636363636      0.181818181818
      0.363636363636     -0.363636363636      0.181818181818
      0.090909090909     -0.272727272727      0.181818181818
      0.181818181818     -0.272727272727      0.181818181818
      0.272727272727     -0.272727272727      0.181818181818
      0.090909090909     -0.181818181818      0.181818181818
      0.181818181818     -0.181818181818      0.181818181818
      0.090909090909     -0.090909090909      0.181818181818
      0.000000000000      0.000000000000      0.272727272727
      0.090909090909     -0.000000000000      0.272727272727
      0.181818181818     -0.000000000000      0.272727272727
      0.272727272727      0.000000000000      0.272727272727
      0.363636363636     -0.000000000000      0.272727272727
      0.454545454545      0.000000000000      0.272727272727
      0.090909090909     -0.454545454545      0.272727272727
      0.181818181818     -0.454545454545      0.272727272727
      0.090909090909     -0.363636363636      0.272727272727
      0.181818181818     -0.363636363636      0.272727272727
      0.272727272727     -0.363636363636      0.272727272727
      0.363636363636     -0.363636363636      0.272727272727
      0.090909090909     -0.272727272727      0.272727272727
      0.181818181818     -0.272727272727      0.272727272727
      0.272727272727     -0.272727272727      0.272727272727
      0.090909090909     -0.181818181818      0.272727272727
      0.181818181818     -0.181818181818      0.272727272727
      0.090909090909     -0.090909090909      0.272727272727
      0.000000000000      0.000000000000      0.363636363636
      0.090909090909     -0.000000000000      0.363636363636
      0.181818181818     -0.000000000000      0.363636363636
      0.272727272727      0.000000000000      0.363636363636
      0.090909090909     -0.272727272727      0.363636363636
      0.090909090909     -0.181818181818      0.363636363636
      0.181818181818     -0.181818181818      0.363636363636
      0.090909090909     -0.090909090909      0.363636363636
      0.000000000000      0.000000000000      0.454545454545
      0.090909090909     -0.000000000000      0.454545454545
     -0.090909090909      0.000000000000     -0.000000000000
     -0.000000000000     -0.090909090909      0.000000000000
      0.000000000000      0.090909090909     -0.000000000000
     -0.090909090909      0.090909090909      0.090909090909
      0.090909090909     -0.090909090909     -0.090909090909
     -0.181818181818      0.000000000000      0.000000000000
     -0.000000000000     -0.181818181818      0.000000000000
      0.000000000000      0.181818181818     -0.000000000000
     -0.181818181818      0.181818181818      0.181818181818
      0.181818181818     -0.181818181818     -0.181818181818
     -0.272727272727      0.000000000000      0.000000000000
      0.000000000000     -0.272727272727      0.000000000000
      0.000000000000      0.272727272727      0.000000000000
     -0.272727272727      0.272727272727      0.272727272727
      0.272727272727     -0.272727272727     -0.272727272727
     -0.363636363636      0.000000000000     -0.000000000000
     -0.000000000000     -0.363636363636      0.000000000000
      0.000000000000      0.363636363636     -0.000000000000
     -0.363636363636      0.363636363636      0.363636363636
      0.363636363636     -0.363636363636     -0.363636363636
     -0.454545454545      0.000000000000      0.000000000000
      0.000000000000     -0.454545454545      0.000000000000
      0.000000000000      0.454545454545      0.000000000000
     -0.454545454545      0.454545454545      0.454545454545
      0.454545454545     -0.454545454545     -0.454545454545
     -0.090909090909     -0.090909090909      0.000000000000
     -0.181818181818      0.090909090909      0.090909090909
      0.181818181818     -0.090909090909     -0.090909090909
      0.090909090909     -0.181818181818     -0.090909090909
     -0.090909090909      0.181818181818      0.090909090909
     -0.181818181818     -0.090909090909      0.000000000000
     -0.272727272727      0.090909090909      0.090909090909
      0.272727272727     -0.090909090909     -0.090909090909
      0.090909090909     -0.272727272727     -0.090909090909
     -0.090909090909      0.272727272727      0.090909090909
      0.090909090909      0.181818181818      0.000000000000
     -0.090909090909     -0.181818181818     -0.000000000000
     -0.272727272727      0.181818181818      0.181818181818
      0.272727272727     -0.181818181818     -0.181818181818
      0.181818181818     -0.272727272727     -0.181818181818
     -0.181818181818      0.272727272727      0.181818181818
     -0.272727272727     -0.090909090909      0.000000000000
     -0.363636363636      0.090909090909      0.090909090909
      0.363636363636     -0.090909090909     -0.090909090909
      0.090909090909     -0.363636363636     -0.090909090909
     -0.090909090909      0.363636363636      0.090909090909
      0.090909090909      0.272727272727      0.000000000000
     -0.090909090909     -0.272727272727     -0.000000000000
     -0.363636363636      0.272727272727      0.272727272727
      0.363636363636     -0.272727272727     -0.272727272727
      0.272727272727     -0.363636363636     -0.272727272727
     -0.272727272727      0.363636363636      0.272727272727
     -0.363636363636     -0.090909090909      0.000000000000
     -0.454545454545      0.090909090909      0.090909090909
      0.454545454545     -0.090909090909     -0.090909090909
      0.090909090909     -0.454545454545     -0.090909090909
     -0.090909090909      0.454545454545      0.090909090909
      0.090909090909      0.363636363636      0.000000000000
     -0.090909090909     -0.363636363636      0.000000000000
     -0.454545454545      0.363636363636      0.363636363636
      0.454545454545     -0.363636363636     -0.363636363636
      0.363636363636     -0.454545454545     -0.363636363636
     -0.363636363636      0.454545454545      0.363636363636
     -0.454545454545     -0.090909090909     -0.000000000000
     -0.545454545455      0.090909090909      0.090909090909
      0.545454545455     -0.090909090909     -0.090909090909
      0.090909090909     -0.545454545455     -0.090909090909
     -0.090909090909      0.545454545455      0.090909090909
      0.090909090909      0.454545454545     -0.000000000000
     -0.090909090909     -0.454545454545      0.000000000000
     -0.545454545455      0.454545454545      0.454545454545
      0.545454545455     -0.454545454545     -0.454545454545
      0.454545454545     -0.545454545455     -0.454545454545
     -0.454545454545      0.545454545455      0.454545454545
      0.454545454545     -0.090909090909     -0.000000000000
      0.363636363636      0.090909090909      0.090909090909
     -0.363636363636     -0.090909090909     -0.090909090909
      0.090909090909      0.363636363636     -0.090909090909
     -0.090909090909     -0.363636363636      0.090909090909
      0.090909090909     -0.454545454545     -0.000000000000
     -0.090909090909      0.454545454545      0.000000000000
      0.363636363636     -0.454545454545     -0.454545454545
     -0.363636363636      0.454545454545      0.454545454545
     -0.454545454545      0.363636363636      0.454545454545
      0.454545454545     -0.363636363636     -0.454545454545
      0.363636363636     -0.090909090909      0.000000000000
      0.272727272727      0.090909090909      0.090909090909
     -0.272727272727     -0.090909090909     -0.090909090909
      0.090909090909      0.272727272727     -0.090909090909
     -0.090909090909     -0.272727272727      0.090909090909
      0.090909090909     -0.363636363636      0.000000000000
     -0.090909090909      0.363636363636      0.000000000000
      0.272727272727     -0.363636363636     -0.363636363636
     -0.272727272727      0.363636363636      0.363636363636
     -0.363636363636      0.272727272727      0.363636363636
      0.363636363636     -0.272727272727     -0.363636363636
      0.272727272727     -0.090909090909      0.000000000000
      0.181818181818      0.090909090909      0.090909090909
     -0.181818181818     -0.090909090909     -0.090909090909
      0.090909090909      0.181818181818     -0.090909090909
     -0.090909090909     -0.181818181818      0.090909090909
      0.090909090909     -0.272727272727      0.000000000000
     -0.090909090909      0.272727272727     -0.000000000000
      0.181818181818     -0.272727272727     -0.272727272727
     -0.181818181818      0.272727272727      0.272727272727
     -0.272727272727      0.181818181818      0.272727272727
      0.272727272727     -0.181818181818     -0.272727272727
      0.181818181818     -0.090909090909      0.000000000000
      0.090909090909      0.090909090909      0.090909090909
     -0.090909090909     -0.090909090909     -0.090909090909
      0.090909090909      0.090909090909     -0.090909090909
     -0.090909090909     -0.090909090909      0.090909090909
      0.090909090909     -0.181818181818      0.000000000000
     -0.090909090909      0.181818181818      0.000000000000
      0.090909090909     -0.181818181818     -0.181818181818
     -0.090909090909      0.181818181818      0.181818181818
     -0.181818181818      0.090909090909      0.181818181818
      0.181818181818     -0.090909090909     -0.181818181818
      0.090909090909     -0.090909090909     -0.000000000000
      0.000000000000      0.090909090909      0.090909090909
      0.000000000000     -0.090909090909     -0.090909090909
      0.090909090909      0.000000000000     -0.090909090909
     -0.090909090909      0.000000000000      0.090909090909
     -0.181818181818     -0.181818181818      0.000000000000
     -0.363636363636      0.181818181818      0.181818181818
      0.363636363636     -0.181818181818     -0.181818181818
      0.181818181818     -0.363636363636     -0.181818181818
     -0.181818181818      0.363636363636      0.181818181818
     -0.272727272727     -0.181818181818     -0.000000000000
     -0.454545454545      0.181818181818      0.181818181818
      0.454545454545     -0.181818181818     -0.181818181818
      0.181818181818     -0.454545454545     -0.181818181818
     -0.181818181818      0.454545454545      0.181818181818
      0.181818181818      0.272727272727     -0.000000000000
     -0.181818181818     -0.272727272727      0.000000000000
     -0.454545454545      0.272727272727      0.272727272727
      0.454545454545     -0.272727272727     -0.272727272727
      0.272727272727     -0.454545454545     -0.272727272727
     -0.272727272727      0.454545454545      0.272727272727
     -0.363636363636     -0.181818181818     -0.000000000000
     -0.545454545455      0.181818181818      0.181818181818
      0.545454545455     -0.181818181818     -0.181818181818
      0.181818181818     -0.545454545455     -0.181818181818
     -0.181818181818      0.545454545455      0.181818181818
      0.181818181818      0.363636363636     -0.000000000000
     -0.181818181818     -0.363636363636      0.000000000000
     -0.545454545455      0.363636363636      0.363636363636
      0.545454545455     -0.363636363636     -0.363636363636
      0.363636363636     -0.545454545455     -0.363636363636
     -0.363636363636      0.545454545455      0.363636363636
     -0.454545454545     -0.181818181818     -0.000000000000
     -0.636363636364      0.181818181818      0.181818181818
      0.636363636364     -0.181818181818     -0.181818181818
      0.181818181818     -0.636363636364     -0.181818181818
     -0.181818181818      0.636363636364      0.181818181818
      0.181818181818      0.454545454545     -0.000000000000
     -0.181818181818     -0.454545454545      0.000000000000
     -0.636363636364      0.454545454545      0.454545454545
      0.636363636364     -0.454545454545     -0.454545454545
      0.454545454545     -0.636363636364     -0.454545454545
     -0.454545454545      0.636363636364      0.454545454545
      0.454545454545     -0.181818181818     -0.000000000000
      0.272727272727      0.181818181818      0.181818181818
     -0.272727272727     -0.181818181818     -0.181818181818
      0.181818181818      0.272727272727     -0.181818181818
     -0.181818181818     -0.272727272727      0.181818181818
      0.181818181818     -0.454545454545     -0.000000000000
     -0.181818181818      0.454545454545      0.000000000000
      0.272727272727     -0.454545454545     -0.454545454545
     -0.272727272727      0.454545454545      0.454545454545
     -0.454545454545      0.272727272727      0.454545454545
      0.454545454545     -0.272727272727     -0.454545454545
      0.363636363636     -0.181818181818      0.000000000000
      0.181818181818      0.181818181818      0.181818181818
     -0.181818181818     -0.181818181818     -0.181818181818
      0.181818181818      0.181818181818     -0.181818181818
     -0.181818181818     -0.181818181818      0.181818181818
      0.181818181818     -0.363636363636      0.000000000000
     -0.181818181818      0.363636363636      0.000000000000
      0.181818181818     -0.363636363636     -0.363636363636
     -0.181818181818      0.363636363636      0.363636363636
     -0.363636363636      0.181818181818      0.363636363636
      0.363636363636     -0.181818181818     -0.363636363636
      0.272727272727     -0.181818181818      0.000000000000
      0.090909090909      0.181818181818      0.181818181818
     -0.090909090909     -0.181818181818     -0.181818181818
      0.181818181818      0.090909090909     -0.181818181818
     -0.181818181818     -0.090909090909      0.181818181818
      0.181818181818     -0.272727272727      0.000000000000
     -0.181818181818      0.272727272727      0.000000000000
      0.090909090909     -0.272727272727     -0.272727272727
     -0.090909090909      0.272727272727      0.272727272727
     -0.272727272727      0.090909090909      0.272727272727
      0.272727272727     -0.090909090909     -0.272727272727
      0.181818181818     -0.181818181818     -0.000000000000
      0.000000000000      0.181818181818      0.181818181818
      0.000000000000     -0.181818181818     -0.181818181818
      0.181818181818      0.000000000000     -0.181818181818
     -0.181818181818      0.000000000000      0.181818181818
     -0.272727272727     -0.272727272727      0.000000000000
     -0.545454545455      0.272727272727      0.272727272727
      0.545454545455     -0.272727272727     -0.272727272727
      0.272727272727     -0.545454545455     -0.272727272727
     -0.272727272727      0.545454545455      0.272727272727
     -0.363636363636     -0.272727272727     -0.000000000000
     -0.636363636364      0.272727272727      0.272727272727
      0.636363636364     -0.272727272727     -0.272727272727
      0.272727272727     -0.636363636364     -0.272727272727
     -0.272727272727      0.636363636364      0.272727272727
      0.272727272727      0.363636363636     -0.000000000000
     -0.272727272727     -0.363636363636      0.000000000000
     -0.636363636364      0.363636363636      0.363636363636
      0.636363636364     -0.363636363636     -0.363636363636
      0.363636363636     -0.636363636364     -0.363636363636
     -0.363636363636      0.636363636364      0.363636363636
     -0.454545454545     -0.272727272727      0.000000000000
     -0.727272727273      0.272727272727      0.272727272727
      0.727272727273     -0.272727272727     -0.272727272727
      0.272727272727     -0.727272727273     -0.272727272727
     -0.272727272727      0.727272727273      0.272727272727
      0.272727272727      0.454545454545      0.000000000000
     -0.272727272727     -0.454545454545     -0.000000000000
     -0.727272727273      0.454545454545      0.454545454545
      0.727272727273     -0.454545454545     -0.454545454545
      0.454545454545     -0.727272727273     -0.454545454545
     -0.454545454545      0.727272727273      0.454545454545
      0.454545454545     -0.272727272727     -0.000000000000
      0.181818181818      0.272727272727      0.272727272727
     -0.181818181818     -0.272727272727     -0.272727272727
      0.272727272727      0.181818181818     -0.272727272727
     -0.272727272727     -0.181818181818      0.272727272727
      0.272727272727     -0.454545454545     -0.000000000000
     -0.272727272727      0.454545454545      0.000000000000
      0.181818181818     -0.454545454545     -0.454545454545
     -0.181818181818      0.454545454545      0.454545454545
     -0.454545454545      0.181818181818      0.454545454545
      0.454545454545     -0.181818181818     -0.454545454545
      0.363636363636     -0.272727272727      0.000000000000
      0.090909090909      0.272727272727      0.272727272727
     -0.090909090909     -0.272727272727     -0.272727272727
      0.272727272727      0.090909090909     -0.272727272727
     -0.272727272727     -0.090909090909      0.272727272727
      0.272727272727     -0.363636363636      0.000000000000
     -0.272727272727      0.363636363636      0.000000000000
      0.090909090909     -0.363636363636     -0.363636363636
     -0.090909090909      0.363636363636      0.363636363636
     -0.363636363636      0.090909090909      0.363636363636
      0.363636363636     -0.090909090909     -0.363636363636
      0.272727272727     -0.272727272727     -0.000000000000
      0.000000000000      0.272727272727      0.272727272727
      0.000000000000     -0.272727272727     -0.272727272727
      0.272727272727      0.000000000000     -0.272727272727
     -0.272727272727      0.000000000000      0.272727272727
     -0.363636363636     -0.363636363636      0.000000000000
     -0.727272727273      0.363636363636      0.363636363636
      0.727272727273     -0.363636363636     -0.363636363636
      0.363636363636     -0.727272727273     -0.363636363636
     -0.363636363636      0.727272727273      0.363636363636
     -0.454545454545     -0.363636363636      0.000000000000
     -0.818181818182      0.363636363636      0.363636363636
      0.818181818182     -0.363636363636     -0.363636363636
      0.363636363636     -0.818181818182     -0.363636363636
     -0.363636363636      0.818181818182      0.363636363636
      0.363636363636      0.454545454545      0.000000000000
     -0.363636363636     -0.454545454545     -0.000000000000
     -0.818181818182      0.454545454545      0.454545454545
      0.818181818182     -0.454545454545     -0.454545454545
      0.454545454545     -0.818181818182     -0.454545454545
     -0.454545454545      0.818181818182      0.454545454545
      0.454545454545     -0.363636363636      0.000000000000
      0.090909090909      0.363636363636      0.363636363636
     -0.090909090909     -0.363636363636     -0.363636363636
      0.363636363636      0.090909090909     -0.363636363636
     -0.363636363636     -0.090909090909      0.363636363636
      0.363636363636     -0.454545454545      0.000000000000
     -0.363636363636      0.454545454545      0.000000000000
      0.090909090909     -0.454545454545     -0.454545454545
     -0.090909090909      0.454545454545      0.454545454545
     -0.454545454545      0.090909090909      0.454545454545
      0.454545454545     -0.090909090909     -0.454545454545
      0.363636363636     -0.363636363636      0.000000000000
      0.000000000000      0.363636363636      0.363636363636
      0.000000000000     -0.363636363636     -0.363636363636
      0.363636363636      0.000000000000     -0.363636363636
     -0.363636363636      0.000000000000      0.363636363636
     -0.454545454545     -0.454545454545      0.000000000000
     -0.909090909091      0.454545454545      0.454545454545
      0.909090909091     -0.454545454545     -0.454545454545
      0.454545454545     -0.909090909091     -0.454545454545
     -0.454545454545      0.909090909091      0.454545454545
      0.454545454545     -0.454545454545     -0.000000000000
      0.000000000000      0.454545454545      0.454545454545
      0.000000000000     -0.454545454545     -0.454545454545
      0.454545454545      0.000000000000     -0.454545454545
     -0.454545454545      0.000000000000      0.454545454545
      0.000000000000      0.000000000000     -0.090909090909
     -0.090909090909      0.000000000000     -0.090909090909
     -0.000000000000     -0.090909090909      0.090909090909
      0.000000000000      0.090909090909     -0.090909090909
     -0.090909090909      0.090909090909      0.181818181818
      0.090909090909     -0.090909090909     -0.181818181818
     -0.181818181818      0.000000000000     -0.090909090909
     -0.000000000000     -0.181818181818      0.090909090909
      0.000000000000      0.181818181818     -0.090909090909
     -0.181818181818      0.181818181818      0.272727272727
      0.181818181818     -0.181818181818     -0.272727272727