 num_wann =    2  ! set to NBANDS by VASP
 num_bands =  256

begin projections
f=0.5,0.5,0.0:s
f=0.66952333,0.33047667,0.50857:s
end projections

search_shells=36



dis_froz_max= 4.6
dis_froz_min= 3.6

conv_tol          = 1.0E-15
dis_conv_tol      = 1.0e-15
num_iter          = 100000
num_print_cycles  = 10000

hr_plot = true
bands_plot = true
begin kpoint_path
G  0.00000000  0.00000000  0.00000000       M  0.51265823  0.00000000 -0.17088608
M  0.51265823  0.00000000 -0.17088608       K  0.34177215  0.34177215  0.00000000
K  0.34177215  0.34177215  0.00000000       G  0.00000000  0.00000000  0.00000000
G  0.00000000  0.00000000  0.00000000       A  0.00000000  0.00000000  0.50000000
A  0.00000000  0.00000000  0.50000000       L  0.47468354  0.00000000  0.34177215
L  0.47468354  0.00000000  0.34177215       G  0.00000000  0.00000000  0.00000000
G  0.00000000  0.00000000  0.00000000       H  0.31645570  0.31645570  0.50000000
end kpoint_path

use_bloch_phases = F

begin unit_cell_cart
     0.0000000     4.7699019    -4.7699019
    -4.7699019     0.0000000     4.7699019
     5.4825735     5.4825735    10.2524754
end unit_cell_cart

begin atoms_cart
Nb      -1.0541483     1.7195496    -0.6654013
Nb      -3.0503523     3.7157536    -0.6654013
Nb      -3.0503523     1.7195496     1.3308026
Nb      -0.1096481     6.6427681     4.2575262
Nb       1.8725800     4.6602538     4.2578124
Nb       1.8728662     6.6424819     2.2752981
Cl       2.0535033     6.8234053     9.2083562
Cl       4.6690518     9.4389538     4.7219977
Cl       2.3370468     9.4389538     7.0540028
Cl       4.6690518     7.1069487     7.0540028
Cl      -3.1544312     1.6154707     4.0004169
Cl      -0.6579320     1.7222491     1.7255880
Cl      -0.6593629     4.1119700    -0.6627019
Cl      -3.0476528     4.1105390     1.7270190
Cl      -0.5396531     4.2326337     4.2078255
Cl       1.8228793     4.2302488     1.8476780
Cl      -0.5372682     6.5927812     1.8452930
Cl       2.0516237     6.8215256    -0.3333321
Cl       1.9595440     4.3597587     6.7437509
Cl      -0.4101433     4.3588047     9.1143921
Cl      -0.4110972     6.7294460     6.7447049
Cl       2.2568974     7.0267994     4.6418532
end atoms_cart

mp_grid =    11    11    11

begin kpoints
      0.000000000000      0.000000000000      0.000000000000
      0.090909090909      0.000000000000     -0.000000000000
      0.181818181818      0.000000000000      0.000000000000
      0.272727272727      0.000000000000      0.000000000000
      0.363636363636      0.000000000000      0.000000000000
      0.454545454545      0.000000000000      0.000000000000
      0.090909090909      0.090909090909      0.000000000000
      0.181818181818      0.090909090909      0.000000000000
     -0.272727272727      0.090909090909      0.090909090909
      0.272727272727      0.090909090909      0.000000000000
     -0.363636363636      0.090909090909      0.090909090909
      0.363636363636      0.090909090909     -0.000000000000
     -0.454545454545      0.090909090909      0.090909090909
      0.454545454545      0.090909090909      0.000000000000
      0.454545454545      0.090909090909      0.090909090909
     -0.454545454545      0.090909090909      0.000000000000
      0.363636363636      0.090909090909      0.090909090909
     -0.363636363636      0.090909090909      0.000000000000
      0.272727272727      0.090909090909      0.090909090909
     -0.272727272727      0.090909090909     -0.000000000000
      0.181818181818      0.090909090909      0.090909090909
     -0.181818181818      0.090909090909     -0.000000000000
      0.090909090909      0.090909090909      0.090909090909
     -0.090909090909      0.090909090909      0.000000000000
      0.181818181818      0.181818181818      0.000000000000
      0.272727272727      0.181818181818     -0.000000000000
     -0.454545454545      0.181818181818      0.181818181818
      0.363636363636      0.181818181818      0.000000000000
      0.454545454545      0.181818181818      0.181818181818
      0.454545454545      0.181818181818     -0.000000000000
      0.363636363636      0.181818181818      0.181818181818
     -0.454545454545      0.181818181818     -0.000000000000
      0.272727272727      0.181818181818      0.181818181818
     -0.363636363636      0.181818181818     -0.000000000000
      0.181818181818      0.181818181818      0.181818181818
     -0.272727272727      0.181818181818     -0.000000000000
      0.090909090909      0.181818181818      0.181818181818
     -0.181818181818      0.181818181818     -0.000000000000
      0.272727272727      0.272727272727      0.000000000000
      0.363636363636      0.272727272727     -0.000000000000
      0.363636363636      0.272727272727      0.272727272727
      0.454545454545      0.272727272727     -0.000000000000
      0.272727272727      0.272727272727      0.272727272727
     -0.454545454545      0.272727272727     -0.000000000000
      0.181818181818      0.272727272727      0.272727272727
     -0.363636363636      0.272727272727     -0.000000000000
      0.090909090909      0.272727272727      0.272727272727
     -0.272727272727      0.272727272727      0.000000000000
      0.363636363636      0.363636363636      0.000000000000
      0.454545454545      0.363636363636     -0.000000000000
      0.181818181818      0.363636363636      0.363636363636
     -0.454545454545      0.363636363636      0.000000000000
      0.090909090909      0.363636363636      0.363636363636
     -0.363636363636      0.363636363636     -0.000000000000
      0.454545454545      0.454545454545      0.000000000000
     -0.454545454545      0.454545454545      0.000000000000
      0.000000000000      0.000000000000      0.090909090909
      0.090909090909      0.000000000000      0.090909090909
      0.181818181818      0.000000000000      0.090909090909
      0.272727272727      0.000000000000      0.090909090909
      0.363636363636      0.000000000000      0.090909090909
      0.454545454545      0.000000000000      0.090909090909
     -0.454545454545      0.000000000000      0.090909090909
     -0.363636363636      0.000000000000      0.090909090909
     -0.272727272727      0.000000000000      0.090909090909
     -0.181818181818      0.000000000000      0.090909090909
      0.090909090909      0.181818181818      0.090909090909
     -0.272727272727      0.181818181818      0.090909090909
      0.181818181818      0.181818181818      0.090909090909
     -0.363636363636      0.181818181818      0.090909090909
      0.272727272727      0.181818181818      0.090909090909
     -0.454545454545      0.181818181818      0.090909090909
      0.363636363636      0.181818181818      0.090909090909
      0.454545454545      0.181818181818      0.090909090909
      0.090909090909      0.272727272727      0.090909090909
     -0.363636363636      0.272727272727      0.181818181818
      0.181818181818      0.272727272727      0.090909090909
     -0.454545454545      0.272727272727      0.181818181818
      0.272727272727      0.272727272727      0.090909090909
      0.454545454545      0.272727272727      0.181818181818
      0.363636363636      0.272727272727      0.090909090909
      0.363636363636      0.272727272727      0.181818181818
      0.454545454545      0.272727272727      0.090909090909
      0.272727272727      0.272727272727      0.181818181818
     -0.454545454545      0.272727272727      0.090909090909
      0.181818181818      0.272727272727      0.181818181818
     -0.363636363636      0.272727272727      0.090909090909
      0.090909090909      0.272727272727      0.181818181818
     -0.272727272727      0.272727272727      0.090909090909
      0.090909090909      0.363636363636      0.090909090909
     -0.454545454545      0.363636363636      0.272727272727
      0.181818181818      0.363636363636      0.090909090909
      0.454545454545      0.363636363636      0.272727272727
      0.272727272727      0.363636363636      0.090909090909
      0.363636363636      0.363636363636      0.272727272727
      0.363636363636      0.363636363636      0.090909090909
      0.272727272727      0.363636363636      0.272727272727
      0.454545454545      0.363636363636      0.090909090909
      0.181818181818      0.363636363636      0.272727272727
     -0.454545454545      0.363636363636      0.090909090909
      0.090909090909      0.363636363636      0.272727272727
     -0.363636363636      0.363636363636      0.090909090909
      0.090909090909      0.454545454545      0.090909090909
      0.454545454545      0.454545454545      0.363636363636
      0.181818181818      0.454545454545      0.090909090909
      0.363636363636      0.454545454545      0.363636363636
      0.272727272727      0.454545454545      0.090909090909
      0.272727272727      0.454545454545      0.363636363636
      0.363636363636      0.454545454545      0.090909090909
      0.181818181818      0.454545454545      0.363636363636
      0.454545454545      0.454545454545      0.090909090909
      0.090909090909      0.454545454545      0.363636363636
     -0.454545454545      0.454545454545      0.090909090909
      0.090909090909     -0.454545454545      0.090909090909
      0.363636363636     -0.454545454545      0.454545454545
      0.181818181818     -0.454545454545      0.090909090909
      0.272727272727     -0.454545454545      0.454545454545
      0.272727272727     -0.454545454545      0.090909090909
      0.181818181818     -0.454545454545      0.454545454545
      0.363636363636     -0.454545454545      0.090909090909
      0.090909090909     -0.454545454545      0.454545454545
      0.454545454545     -0.454545454545      0.090909090909
      0.090909090909     -0.363636363636      0.090909090909
      0.272727272727     -0.363636363636     -0.454545454545
      0.181818181818     -0.363636363636      0.090909090909
      0.181818181818     -0.363636363636     -0.454545454545
      0.272727272727     -0.363636363636      0.090909090909
      0.090909090909     -0.363636363636     -0.454545454545
      0.363636363636     -0.363636363636      0.090909090909
      0.090909090909     -0.272727272727      0.090909090909
      0.181818181818     -0.272727272727     -0.363636363636
      0.181818181818     -0.272727272727      0.090909090909
      0.090909090909     -0.272727272727     -0.363636363636
      0.272727272727     -0.272727272727      0.090909090909
      0.090909090909     -0.181818181818      0.090909090909
      0.090909090909     -0.181818181818     -0.272727272727
      0.181818181818     -0.181818181818      0.090909090909
      0.090909090909     -0.090909090909      0.090909090909
      0.000000000000      0.000000000000      0.181818181818
      0.090909090909      0.000000000000      0.181818181818
      0.181818181818      0.000000000000      0.181818181818
      0.272727272727      0.000000000000      0.181818181818
      0.363636363636      0.000000000000      0.181818181818
      0.454545454545      0.000000000000      0.181818181818
     -0.454545454545      0.000000000000      0.181818181818
     -0.363636363636      0.000000000000      0.181818181818
      0.090909090909      0.363636363636      0.181818181818
     -0.454545454545      0.363636363636      0.181818181818
      0.181818181818      0.363636363636      0.181818181818
      0.454545454545      0.363636363636      0.181818181818
      0.272727272727      0.363636363636      0.181818181818
      0.363636363636      0.363636363636      0.181818181818
      0.090909090909      0.454545454545      0.181818181818
      0.454545454545      0.454545454545      0.272727272727
      0.181818181818      0.454545454545      0.181818181818
      0.363636363636      0.454545454545      0.272727272727
      0.272727272727      0.454545454545      0.181818181818
      0.272727272727      0.454545454545      0.272727272727
      0.363636363636      0.454545454545      0.181818181818
      0.181818181818      0.454545454545      0.272727272727
      0.454545454545      0.454545454545      0.181818181818
      0.090909090909      0.454545454545      0.272727272727
     -0.454545454545      0.454545454545      0.181818181818
      0.090909090909     -0.454545454545      0.181818181818
      0.363636363636     -0.454545454545      0.363636363636
      0.181818181818     -0.454545454545      0.181818181818
      0.272727272727     -0.454545454545      0.363636363636
      0.272727272727     -0.454545454545      0.181818181818
      0.181818181818     -0.454545454545      0.363636363636
      0.363636363636     -0.454545454545      0.181818181818
      0.090909090909     -0.454545454545      0.363636363636
      0.454545454545     -0.454545454545      0.181818181818
      0.090909090909     -0.363636363636      0.181818181818
      0.272727272727     -0.363636363636      0.454545454545
      0.181818181818     -0.363636363636      0.181818181818
      0.181818181818     -0.363636363636      0.454545454545
      0.272727272727     -0.363636363636      0.181818181818
      0.090909090909     -0.363636363636      0.454545454545
      0.363636363636     -0.363636363636      0.181818181818
      0.090909090909     -0.272727272727      0.181818181818
      0.181818181818     -0.272727272727     -0.454545454545
      0.181818181818     -0.272727272727      0.181818181818
      0.090909090909     -0.272727272727     -0.454545454545
      0.272727272727     -0.272727272727      0.181818181818
      0.090909090909     -0.181818181818      0.181818181818
      0.090909090909     -0.181818181818     -0.363636363636
      0.181818181818     -0.181818181818      0.181818181818
      0.090909090909     -0.090909090909      0.181818181818
      0.000000000000      0.000000000000      0.272727272727
      0.090909090909      0.000000000000      0.272727272727
      0.181818181818      0.000000000000      0.272727272727
      0.272727272727      0.000000000000      0.272727272727
      0.363636363636      0.000000000000      0.272727272727
      0.454545454545      0.000000000000      0.272727272727
      0.090909090909     -0.454545454545      0.272727272727
      0.363636363636     -0.454545454545      0.272727272727
      0.181818181818     -0.454545454545      0.272727272727
      0.272727272727     -0.454545454545      0.272727272727
      0.090909090909     -0.363636363636      0.272727272727
      0.272727272727     -0.363636363636      0.363636363636
      0.181818181818     -0.363636363636      0.272727272727
      0.181818181818     -0.363636363636      0.363636363636
      0.272727272727     -0.363636363636      0.272727272727
      0.090909090909     -0.363636363636      0.363636363636
      0.363636363636     -0.363636363636      0.272727272727
      0.090909090909     -0.272727272727      0.272727272727
      0.181818181818     -0.272727272727      0.454545454545
      0.181818181818     -0.272727272727      0.272727272727
      0.090909090909     -0.272727272727      0.454545454545
      0.272727272727     -0.272727272727      0.272727272727
      0.090909090909     -0.181818181818      0.272727272727
      0.090909090909     -0.181818181818     -0.454545454545
      0.181818181818     -0.181818181818      0.272727272727
      0.090909090909     -0.090909090909      0.272727272727
      0.000000000000      0.000000000000      0.363636363636
      0.090909090909      0.000000000000      0.363636363636
      0.181818181818      0.000000000000      0.363636363636
      0.272727272727      0.000000000000      0.363636363636
      0.090909090909     -0.272727272727      0.363636363636
      0.181818181818     -0.272727272727      0.363636363636
      0.090909090909     -0.181818181818      0.363636363636
      0.090909090909     -0.181818181818      0.454545454545
      0.181818181818     -0.181818181818      0.363636363636
      0.090909090909     -0.090909090909      0.363636363636
      0.000000000000      0.000000000000      0.454545454545
      0.090909090909      0.000000000000      0.454545454545
      0.000000000000     -0.090909090909     -0.000000000000
     -0.090909090909      0.090909090909      0.090909090909
      0.000000000000     -0.181818181818      0.000000000000
     -0.181818181818      0.181818181818      0.181818181818
      0.000000000000     -0.272727272727      0.000000000000
     -0.272727272727      0.272727272727      0.272727272727
      0.000000000000     -0.363636363636      0.000000000000
     -0.363636363636      0.363636363636      0.363636363636
      0.000000000000     -0.454545454545      0.000000000000
     -0.454545454545      0.454545454545      0.454545454545
      0.090909090909     -0.181818181818     -0.090909090909
     -0.181818181818      0.090909090909      0.090909090909
      0.090909090909     -0.272727272727     -0.090909090909
     -0.272727272727      0.181818181818      0.181818181818
      0.090909090909      0.181818181818     -0.000000000000
      0.181818181818     -0.272727272727     -0.181818181818
      0.090909090909     -0.363636363636     -0.090909090909
     -0.363636363636      0.272727272727      0.272727272727
      0.090909090909      0.272727272727     -0.000000000000
      0.272727272727     -0.363636363636     -0.272727272727
      0.090909090909     -0.454545454545     -0.090909090909
     -0.454545454545      0.363636363636      0.363636363636
      0.090909090909      0.363636363636     -0.000000000000
      0.363636363636     -0.454545454545     -0.363636363636
      0.090909090909     -0.545454545455     -0.090909090909
     -0.545454545455      0.454545454545      0.454545454545
      0.090909090909     -0.545454545455      0.000000000000
     -0.545454545455      0.454545454545      0.545454545455
      0.090909090909      0.363636363636     -0.090909090909
      0.363636363636     -0.454545454545     -0.454545454545
      0.090909090909     -0.454545454545      0.000000000000
     -0.454545454545      0.363636363636      0.454545454545
      0.090909090909      0.272727272727     -0.090909090909
      0.272727272727     -0.363636363636     -0.363636363636
      0.090909090909     -0.363636363636      0.000000000000
     -0.363636363636      0.272727272727      0.363636363636
      0.090909090909      0.181818181818     -0.090909090909
      0.181818181818     -0.272727272727     -0.272727272727
      0.090909090909     -0.272727272727     -0.000000000000
     -0.272727272727      0.181818181818      0.272727272727
      0.090909090909      0.090909090909     -0.090909090909
      0.090909090909     -0.181818181818     -0.181818181818
      0.090909090909     -0.181818181818     -0.000000000000
     -0.181818181818      0.090909090909      0.181818181818
      0.090909090909      0.000000000000     -0.090909090909
      0.000000000000     -0.090909090909     -0.090909090909
      0.181818181818     -0.363636363636     -0.181818181818
     -0.363636363636      0.181818181818      0.181818181818
      0.181818181818     -0.454545454545     -0.181818181818
     -0.454545454545      0.272727272727      0.272727272727
      0.181818181818      0.272727272727     -0.000000000000
      0.272727272727     -0.454545454545     -0.272727272727
      0.181818181818     -0.545454545455     -0.181818181818
     -0.545454545455      0.363636363636      0.363636363636
      0.181818181818     -0.636363636364     -0.000000000000
     -0.636363636364      0.454545454545      0.636363636364
      0.181818181818     -0.636363636364     -0.181818181818
     -0.636363636364      0.454545454545      0.454545454545
      0.181818181818     -0.545454545455     -0.000000000000
     -0.545454545455      0.363636363636      0.545454545455
      0.181818181818      0.272727272727     -0.181818181818
      0.272727272727     -0.454545454545     -0.454545454545
      0.181818181818     -0.454545454545     -0.000000000000
     -0.454545454545      0.272727272727      0.454545454545
      0.181818181818      0.181818181818     -0.181818181818
      0.181818181818     -0.363636363636     -0.363636363636
      0.181818181818     -0.363636363636     -0.000000000000
     -0.363636363636      0.181818181818      0.363636363636
      0.181818181818      0.090909090909     -0.181818181818
      0.090909090909     -0.272727272727     -0.272727272727
      0.181818181818     -0.272727272727     -0.000000000000
     -0.272727272727      0.090909090909      0.272727272727
      0.181818181818      0.000000000000     -0.181818181818
      0.000000000000     -0.181818181818     -0.181818181818
      0.272727272727     -0.545454545455     -0.272727272727
     -0.545454545455      0.272727272727      0.272727272727
      0.272727272727     -0.636363636364     -0.272727272727
     -0.636363636364      0.363636363636      0.363636363636
      0.272727272727     -0.636363636364      0.000000000000
     -0.636363636364      0.363636363636      0.636363636364
      0.272727272727     -0.727272727273     -0.272727272727
     -0.727272727273      0.454545454545      0.454545454545
      0.272727272727     -0.545454545455     -0.000000000000
     -0.545454545455      0.272727272727      0.545454545455
      0.272727272727      0.181818181818     -0.272727272727
      0.181818181818     -0.454545454545     -0.454545454545
      0.272727272727     -0.454545454545     -0.000000000000
     -0.454545454545      0.181818181818      0.454545454545
      0.272727272727      0.090909090909     -0.272727272727
      0.090909090909     -0.363636363636     -0.363636363636
      0.272727272727     -0.363636363636      0.000000000000
     -0.363636363636      0.090909090909      0.363636363636
      0.272727272727      0.000000000000     -0.272727272727
      0.000000000000     -0.272727272727     -0.272727272727
      0.363636363636     -0.727272727273     -0.363636363636
     -0.727272727273      0.363636363636      0.363636363636
      0.363636363636     -0.818181818182     -0.363636363636
     -0.818181818182      0.454545454545      0.454545454545
      0.363636363636     -0.545454545455     -0.000000000000
     -0.545454545455      0.181818181818      0.545454545455
      0.363636363636      0.090909090909     -0.363636363636
      0.090909090909     -0.454545454545     -0.454545454545
      0.363636363636     -0.454545454545     -0.000000000000
     -0.454545454545      0.090909090909      0.454545454545
      0.363636363636      0.000000000000     -0.363636363636
      0.000000000000     -0.363636363636     -0.363636363636
      0.454545454545     -0.909090909091     -0.454545454545
     -0.909090909091      0.454545454545      0.454545454545
      0.454545454545      0.000000000000     -0.454545454545
      0.000000000000     -0.454545454545     -0.454545454545
      0.000000000000     -0.090909090909      0.090909090909
     -0.090909090909      0.090909090909      0.181818181818
      0.000000000000     -0.181818181818      0.090909090909
     -0.181818181818      0.181818181818      0.272727272727
      0.000000000000     -0.272727272727      0.090909090909
     -0.272727272727      0.272727272727      0.363636363636
      0.000000000000     -0.363636363636      0.090909090909
     -0.363636363636      0.363636363636      0.454545454545
      0.000000000000     -0.454545454545      0.090909090909
     -0.454545454545      0.454545454545      0.545454545455
      0.000000000000      0.454545454545      0.090909090909
      0.454545454545     -0.454545454545     -0.363636363636
      0.000000000000      0.363636363636      0.090909090909
      0.363636363636     -0.363636363636     -0.272727272727
      0.000000000000      0.272727272727      0.090909090909
      0.272727272727     -0.272727272727     -0.181818181818
      0.000000000000      0.181818181818      0.090909090909
      0.181818181818     -0.181818181818     -0.090909090909
      0.181818181818     -0.272727272727     -0.090909090909
     -0.272727272727      0.090909090909      0.181818181818
      0.181818181818      0.090909090909     -0.090909090909
      0.090909090909     -0.272727272727     -0.181818181818
      0.181818181818     -0.363636363636     -0.090909090909
     -0.363636363636      0.181818181818      0.272727272727
      0.181818181818      0.181818181818     -0.090909090909
      0.181818181818     -0.363636363636     -0.272727272727
      0.181818181818     -0.454545454545     -0.090909090909
     -0.454545454545      0.272727272727      0.363636363636
      0.181818181818      0.272727272727     -0.090909090909
      0.272727272727     -0.454545454545     -0.363636363636
      0.181818181818     -0.545454545455     -0.090909090909
     -0.545454545455      0.363636363636      0.454545454545
      0.181818181818     -0.636363636364     -0.090909090909
     -0.636363636364      0.454545454545      0.545454545455
      0.272727272727     -0.363636363636     -0.181818181818
     -0.363636363636      0.090909090909      0.181818181818
      0.272727272727      0.090909090909     -0.090909090909
      0.090909090909     -0.363636363636     -0.181818181818
      0.272727272727     -0.454545454545     -0.181818181818
     -0.454545454545      0.181818181818      0.272727272727
      0.272727272727      0.181818181818     -0.090909090909
      0.181818181818     -0.454545454545     -0.272727272727
      0.272727272727     -0.545454545455     -0.181818181818
     -0.545454545455      0.272727272727      0.363636363636
      0.272727272727     -0.727272727273     -0.090909090909
     -0.727272727273      0.454545454545      0.636363636364
      0.272727272727     -0.636363636364     -0.181818181818
     -0.636363636364      0.363636363636      0.454545454545
      0.272727272727     -0.636363636364     -0.090909090909
     -0.636363636364      0.363636363636      0.545454545455
      0.272727272727     -0.727272727273     -0.181818181818
     -0.727272727273      0.454545454545      0.545454545455
      0.272727272727     -0.545454545455     -0.090909090909
     -0.545454545455      0.272727272727      0.454545454545
      0.272727272727      0.181818181818     -0.181818181818
      0.181818181818     -0.454545454545     -0.363636363636
      0.272727272727     -0.454545454545     -0.090909090909
     -0.454545454545      0.181818181818      0.363636363636
      0.272727272727      0.090909090909     -0.181818181818
      0.090909090909     -0.363636363636     -0.272727272727
      0.272727272727     -0.363636363636     -0.090909090909
     -0.363636363636      0.090909090909      0.272727272727
      0.272727272727      0.000000000000     -0.181818181818
      0.000000000000     -0.272727272727     -0.181818181818
      0.363636363636     -0.454545454545     -0.272727272727
     -0.454545454545      0.090909090909      0.181818181818
      0.363636363636      0.090909090909     -0.090909090909
      0.090909090909     -0.454545454545     -0.181818181818
      0.363636363636     -0.545454545455     -0.272727272727
     -0.545454545455      0.181818181818      0.272727272727
      0.363636363636     -0.818181818182     -0.090909090909
     -0.818181818182      0.454545454545      0.727272727273
      0.363636363636     -0.636363636364     -0.272727272727
     -0.636363636364      0.272727272727      0.363636363636
      0.363636363636     -0.727272727273     -0.090909090909
     -0.727272727273      0.363636363636      0.636363636364
      0.363636363636     -0.727272727273     -0.272727272727
     -0.727272727273      0.363636363636      0.454545454545
      0.363636363636     -0.636363636364     -0.090909090909
     -0.636363636364      0.272727272727      0.545454545455
      0.363636363636     -0.818181818182     -0.272727272727
     -0.818181818182      0.454545454545      0.545454545455
      0.363636363636     -0.545454545455     -0.090909090909
     -0.545454545455      0.181818181818      0.454545454545
      0.363636363636      0.090909090909     -0.272727272727
      0.090909090909     -0.454545454545     -0.363636363636
      0.363636363636     -0.454545454545     -0.090909090909
     -0.454545454545      0.090909090909      0.363636363636
      0.363636363636      0.000000000000     -0.272727272727
      0.000000000000     -0.363636363636     -0.272727272727
      0.454545454545     -0.545454545455     -0.363636363636
     -0.545454545455      0.090909090909      0.181818181818
      0.454545454545     -0.909090909091     -0.090909090909
     -0.909090909091      0.454545454545      0.818181818182
      0.454545454545     -0.636363636364     -0.363636363636
     -0.636363636364      0.181818181818      0.272727272727
      0.454545454545     -0.818181818182     -0.090909090909
     -0.818181818182      0.363636363636      0.727272727273
      0.454545454545     -0.727272727273     -0.363636363636
     -0.727272727273      0.272727272727      0.363636363636
      0.454545454545     -0.727272727273     -0.090909090909
     -0.727272727273      0.272727272727      0.636363636364
      0.454545454545     -0.818181818182     -0.363636363636
     -0.818181818182      0.363636363636      0.454545454545
      0.454545454545     -0.636363636364     -0.090909090909
     -0.636363636364      0.181818181818      0.545454545455
      0.454545454545     -0.909090909091     -0.363636363636
     -0.909090909091      0.454545454545      0.545454545455
      0.454545454545     -0.545454545455     -0.090909090909
     -0.545454545455      0.090909090909      0.454545454545
      0.454545454545      0.000000000000     -0.363636363636
      0.000000000000     -0.454545454545     -0.363636363636
     -0.454545454545      0.363636363636      0.545454545455
      0.363636363636      0.090909090909      0.181818181818
     -0.454545454545      0.090909090909      0.909090909091
      0.090909090909      0.363636363636      0.818181818182
     -0.454545454545      0.272727272727      0.545454545455
      0.272727272727      0.181818181818      0.272727272727