 num_wann =   2  ! set to NBANDS by VASP
num_bands = 128

kmesh_tol = 0.0001


dis_froz_min = 4.51
dis_froz_max = 5.29

#begin projections  
#  c=  -2.0434419,  3.5393452,  3.2018752:s
#  c=  -2.0434419,  3.5393452,  9.7837889:s
#end projections


begin projections  
  c=  -2.0434419,  3.5393452,  3.2018752:s
  c=  -2.0434419,  3.5393452,  9.7837889:s
end projections

conv_tol          = 1.0E-15
dis_conv_tol      = 1.0e-15
num_iter          = 100000
dis_num_iter      = 10000
num_print_cycles  = 100


guiding_centres = true

use_bloch_phases = false
wannier_plot = false


translate_home_cell = true 
write_xyz = true

hr_plot = true
bands_plot = true


begin kpoint_path
G 0.00000000  0.00000000  0.00000000   M 0.51265823  0.00000000 -0.17088608  
M 0.51265823  0.00000000 -0.17088608   K 0.34177215  0.34177215  0.00000000  
K 0.34177215  0.34177215  0.00000000   G 0.00000000  0.00000000  0.00000000  
G 0.00000000  0.00000000  0.00000000   A 0.00000000  0.00000000  0.50000000  
A 0.00000000  0.00000000  0.50000000   L 0.47468354  0.00000000  0.34177215  
L 0.47468354  0.00000000  0.34177215   G 0.00000000  0.00000000  0.00000000  
G 0.00000000  0.00000000  0.00000000   H 0.31645570  0.31645570  0.50000000  
end kpoint_path

begin unit_cell_cart
     6.1303257     3.5393452     0.0000000
    -6.1303257     3.5393452     0.0000000
    -4.0868838     0.0000000    12.9856641
end unit_cell_cart

begin atoms_cart
Nb      -2.8764714     2.0964957     3.2018752
Nb      -2.8764714     4.9821947     3.2018752
Nb      -0.3773829     3.5393452     3.2018752
Nb      -1.2104124     4.9821947     9.7837889
Nb      -1.2104124     2.0964957     9.7837889
Nb      -3.7095010     3.5393452     9.7837889
Br      -3.0643455     5.3076021     8.0431905
Br      -0.0016348     3.5393452     8.0431905
Br      -3.0643455     1.7710883     8.0431905
Br      -1.0225383     1.7710883     4.9424736
Br      -4.0852491     3.5393452     4.9424736
Br      -1.0225383     5.3076021     4.9424736
Br      -5.0904181     1.7381724    11.2193541
Br      -8.2101409     3.5393452    11.2193541
Br      -5.0904181     5.3405180    11.2193541
Br       1.0035343     5.3405180     1.7663100
Br       4.1232571     3.5393452     1.7663100
Br       1.0035343     1.7381724     1.7663100
Br      -6.1303257     3.5393452     8.3739354
Br       2.0434419     3.5393452     4.6117288
Br      -2.0434419     3.5393452    11.7398195
Br      -2.0434419     3.5393452     1.2458446
end atoms_cart

mp_grid =    15    15    15

begin kpoints
      0.000000000000      0.000000000000      0.000000000000
      0.066666666667     -0.000000000000      0.000000000000
      0.133333333333     -0.000000000000      0.000000000000
      0.200000000000     -0.000000000000      0.000000000000
      0.266666666667     -0.000000000000      0.000000000000
      0.333333333333     -0.000000000000     -0.000000000000
      0.400000000000     -0.000000000000     -0.000000000000
      0.466666666667     -0.000000000000     -0.000000000000
      0.066666666667      0.066666666667      0.000000000000
      0.133333333333      0.066666666667      0.000000000000
      0.200000000000      0.066666666667      0.000000000000
      0.266666666667      0.066666666667      0.000000000000
      0.333333333333      0.066666666667      0.000000000000
      0.400000000000      0.066666666667      0.000000000000
      0.466666666667      0.066666666667     -0.000000000000
     -0.466666666667      0.066666666667      0.000000000000
     -0.400000000000      0.066666666667      0.000000000000
     -0.333333333333      0.066666666667      0.000000000000
     -0.266666666667      0.066666666667      0.000000000000
     -0.200000000000      0.066666666667     -0.000000000000
     -0.133333333333      0.066666666667      0.000000000000
     -0.066666666667      0.066666666667      0.000000000000
      0.133333333333      0.133333333333      0.000000000000
      0.200000000000      0.133333333333     -0.000000000000
      0.266666666667      0.133333333333      0.000000000000
      0.333333333333      0.133333333333      0.000000000000
      0.400000000000      0.133333333333      0.000000000000
      0.466666666667      0.133333333333      0.000000000000
     -0.466666666667      0.133333333333      0.000000000000
     -0.400000000000      0.133333333333      0.000000000000
     -0.333333333333      0.133333333333      0.000000000000
     -0.266666666667      0.133333333333      0.000000000000
     -0.200000000000      0.133333333333      0.000000000000
     -0.133333333333      0.133333333333     -0.000000000000
      0.200000000000      0.200000000000      0.000000000000
      0.266666666667      0.200000000000      0.000000000000
      0.333333333333      0.200000000000     -0.000000000000
      0.400000000000      0.200000000000      0.000000000000
      0.466666666667      0.200000000000      0.000000000000
     -0.466666666667      0.200000000000      0.000000000000
     -0.400000000000      0.200000000000      0.000000000000
     -0.333333333333      0.200000000000      0.000000000000
     -0.266666666667      0.200000000000     -0.000000000000
     -0.200000000000      0.200000000000      0.000000000000
      0.266666666667      0.266666666667      0.000000000000
      0.333333333333      0.266666666667     -0.000000000000
      0.400000000000      0.266666666667      0.000000000000
      0.466666666667      0.266666666667     -0.000000000000
     -0.466666666667      0.266666666667      0.000000000000
     -0.400000000000      0.266666666667      0.000000000000
     -0.333333333333      0.266666666667      0.000000000000
     -0.266666666667      0.266666666667     -0.000000000000
      0.333333333333      0.333333333333      0.000000000000
      0.400000000000      0.333333333333      0.000000000000
      0.466666666667      0.333333333333      0.000000000000
     -0.466666666667      0.333333333333      0.000000000000
     -0.400000000000      0.333333333333      0.000000000000
     -0.333333333333      0.333333333333      0.000000000000
      0.400000000000      0.400000000000      0.000000000000
      0.466666666667      0.400000000000     -0.000000000000
     -0.466666666667      0.400000000000      0.000000000000
     -0.400000000000      0.400000000000      0.000000000000
      0.466666666667      0.466666666667      0.000000000000
     -0.466666666667      0.466666666667      0.000000000000
      0.000000000000      0.000000000000      0.066666666667
      0.066666666667     -0.000000000000      0.066666666667
      0.133333333333     -0.000000000000      0.066666666667
      0.200000000000     -0.000000000000      0.066666666667
      0.266666666667     -0.000000000000      0.066666666667
      0.333333333333     -0.000000000000      0.066666666667
      0.400000000000     -0.000000000000      0.066666666667
      0.466666666667     -0.000000000000      0.066666666667
     -0.466666666667      0.000000000000      0.066666666667
     -0.400000000000      0.000000000000      0.066666666667
     -0.333333333333      0.000000000000      0.066666666667
     -0.266666666667      0.000000000000      0.066666666667
     -0.200000000000      0.000000000000      0.066666666667
     -0.133333333333      0.000000000000      0.066666666667
      0.066666666667      0.133333333333      0.066666666667
      0.133333333333      0.133333333333      0.066666666667
      0.200000000000      0.133333333333      0.066666666667
      0.266666666667      0.133333333333      0.066666666667
      0.333333333333      0.133333333333      0.066666666667
      0.400000000000      0.133333333333      0.066666666667
      0.066666666667      0.200000000000      0.066666666667
      0.133333333333      0.200000000000      0.066666666667
      0.200000000000      0.200000000000      0.066666666667
      0.266666666667      0.200000000000      0.066666666667
      0.333333333333      0.200000000000      0.066666666667
      0.400000000000      0.200000000000      0.066666666667
      0.466666666667      0.200000000000      0.066666666667
     -0.466666666667      0.200000000000      0.066666666667
     -0.400000000000      0.200000000000      0.066666666667
     -0.333333333333      0.200000000000      0.066666666667
     -0.266666666667      0.200000000000      0.066666666667
     -0.200000000000      0.200000000000      0.066666666667
      0.066666666667      0.266666666667      0.066666666667
      0.133333333333      0.266666666667      0.066666666667
      0.200000000000      0.266666666667      0.066666666667
      0.266666666667      0.266666666667      0.066666666667
      0.333333333333      0.266666666667      0.066666666667
      0.400000000000      0.266666666667      0.066666666667
      0.466666666667      0.266666666667      0.066666666667
     -0.466666666667      0.266666666667      0.066666666667
     -0.400000000000      0.266666666667      0.066666666667
     -0.333333333333      0.266666666667      0.066666666667
     -0.266666666667      0.266666666667      0.066666666667
      0.066666666667      0.333333333333      0.066666666667
      0.133333333333      0.333333333333      0.066666666667
      0.200000000000      0.333333333333      0.066666666667
      0.266666666667      0.333333333333      0.066666666667
      0.333333333333      0.333333333333      0.066666666667
      0.400000000000      0.333333333333      0.066666666667
      0.466666666667      0.333333333333      0.066666666667
     -0.466666666667      0.333333333333      0.066666666667
     -0.400000000000      0.333333333333      0.066666666667
     -0.333333333333      0.333333333333      0.066666666667
      0.066666666667      0.400000000000      0.066666666667
      0.133333333333      0.400000000000      0.066666666667
      0.200000000000      0.400000000000      0.066666666667
      0.266666666667      0.400000000000      0.066666666667
      0.333333333333      0.400000000000      0.066666666667
      0.400000000000      0.400000000000      0.066666666667
      0.466666666667      0.400000000000      0.066666666667
     -0.466666666667      0.400000000000      0.066666666667
     -0.400000000000      0.400000000000      0.066666666667
      0.066666666667      0.466666666667      0.066666666667
      0.133333333333      0.466666666667      0.066666666667
      0.200000000000      0.466666666667      0.066666666667
      0.266666666667      0.466666666667      0.066666666667
      0.333333333333      0.466666666667      0.066666666667
      0.400000000000      0.466666666667      0.066666666667
      0.466666666667      0.466666666667      0.066666666667
     -0.466666666667      0.466666666667      0.066666666667
      0.066666666667     -0.466666666667      0.066666666667
      0.133333333333     -0.466666666667      0.066666666667
      0.200000000000     -0.466666666667      0.066666666667
      0.266666666667     -0.466666666667      0.066666666667
      0.333333333333     -0.466666666667      0.066666666667
      0.400000000000     -0.466666666667      0.066666666667
      0.466666666667     -0.466666666667      0.066666666667
      0.066666666667     -0.400000000000      0.066666666667
      0.133333333333     -0.400000000000      0.066666666667
      0.200000000000     -0.400000000000      0.066666666667
      0.266666666667     -0.400000000000      0.066666666667
      0.333333333333     -0.400000000000      0.066666666667
      0.400000000000     -0.400000000000      0.066666666667
      0.066666666667     -0.333333333333      0.066666666667
      0.133333333333     -0.333333333333      0.066666666667
      0.200000000000     -0.333333333333      0.066666666667
      0.266666666667     -0.333333333333      0.066666666667
      0.333333333333     -0.333333333333      0.066666666667
      0.066666666667     -0.266666666667      0.066666666667
      0.133333333333     -0.266666666667      0.066666666667
      0.200000000000     -0.266666666667      0.066666666667
      0.266666666667     -0.266666666667      0.066666666667
      0.066666666667     -0.200000000000      0.066666666667
      0.133333333333     -0.200000000000      0.066666666667
      0.200000000000     -0.200000000000      0.066666666667
      0.066666666667     -0.133333333333      0.066666666667
      0.133333333333     -0.133333333333      0.066666666667
      0.066666666667     -0.066666666667      0.066666666667
      0.000000000000      0.000000000000      0.133333333333
      0.066666666667     -0.000000000000      0.133333333333
      0.133333333333     -0.000000000000      0.133333333333
      0.200000000000     -0.000000000000      0.133333333333
      0.266666666667     -0.000000000000      0.133333333333
      0.333333333333     -0.000000000000      0.133333333333
      0.400000000000     -0.000000000000      0.133333333333
      0.466666666667     -0.000000000000      0.133333333333
     -0.466666666667      0.000000000000      0.133333333333
     -0.400000000000      0.000000000000      0.133333333333
     -0.333333333333      0.000000000000      0.133333333333
     -0.266666666667      0.000000000000      0.133333333333
      0.066666666667      0.266666666667      0.133333333333
      0.133333333333      0.266666666667      0.133333333333
      0.200000000000      0.266666666667      0.133333333333
      0.266666666667      0.266666666667      0.133333333333
      0.333333333333      0.266666666667      0.133333333333
      0.066666666667      0.333333333333      0.133333333333
      0.133333333333      0.333333333333      0.133333333333
      0.200000000000      0.333333333333      0.133333333333
      0.266666666667      0.333333333333      0.133333333333
      0.333333333333      0.333333333333      0.133333333333
      0.400000000000      0.333333333333      0.133333333333
      0.466666666667      0.333333333333      0.133333333333
     -0.466666666667      0.333333333333      0.133333333333
     -0.400000000000      0.333333333333      0.133333333333
     -0.333333333333      0.333333333333      0.133333333333
      0.066666666667      0.400000000000      0.133333333333
      0.133333333333      0.400000000000      0.133333333333
      0.200000000000      0.400000000000      0.133333333333
      0.266666666667      0.400000000000      0.133333333333
      0.333333333333      0.400000000000      0.133333333333
      0.400000000000      0.400000000000      0.133333333333
      0.466666666667      0.400000000000      0.133333333333
     -0.466666666667      0.400000000000      0.133333333333
     -0.400000000000      0.400000000000      0.133333333333
      0.066666666667      0.466666666667      0.133333333333
      0.133333333333      0.466666666667      0.133333333333
      0.200000000000      0.466666666667      0.133333333333
      0.266666666667      0.466666666667      0.133333333333
      0.333333333333      0.466666666667      0.133333333333
      0.400000000000      0.466666666667      0.133333333333
      0.466666666667      0.466666666667      0.133333333333
     -0.466666666667      0.466666666667      0.133333333333
      0.066666666667     -0.466666666667      0.133333333333
      0.133333333333     -0.466666666667      0.133333333333
      0.200000000000     -0.466666666667      0.133333333333
      0.266666666667     -0.466666666667      0.133333333333
      0.333333333333     -0.466666666667      0.133333333333
      0.400000000000     -0.466666666667      0.133333333333
      0.466666666667     -0.466666666667      0.133333333333
      0.066666666667     -0.400000000000      0.133333333333
      0.133333333333     -0.400000000000      0.133333333333
      0.200000000000     -0.400000000000      0.133333333333
      0.266666666667     -0.400000000000      0.133333333333
      0.333333333333     -0.400000000000      0.133333333333
      0.400000000000     -0.400000000000      0.133333333333
      0.066666666667     -0.333333333333      0.133333333333
      0.133333333333     -0.333333333333      0.133333333333
      0.200000000000     -0.333333333333      0.133333333333
      0.266666666667     -0.333333333333      0.133333333333
      0.333333333333     -0.333333333333      0.133333333333
      0.066666666667     -0.266666666667      0.133333333333
      0.133333333333     -0.266666666667      0.133333333333
      0.200000000000     -0.266666666667      0.133333333333
      0.266666666667     -0.266666666667      0.133333333333
      0.066666666667     -0.200000000000      0.133333333333
      0.133333333333     -0.200000000000      0.133333333333
      0.200000000000     -0.200000000000      0.133333333333
      0.066666666667     -0.133333333333      0.133333333333
      0.133333333333     -0.133333333333      0.133333333333
      0.066666666667     -0.066666666667      0.133333333333
      0.000000000000      0.000000000000      0.200000000000
      0.066666666667     -0.000000000000      0.200000000000
      0.133333333333     -0.000000000000      0.200000000000
      0.200000000000     -0.000000000000      0.200000000000
      0.266666666667     -0.000000000000      0.200000000000
      0.333333333333     -0.000000000000      0.200000000000
      0.400000000000     -0.000000000000      0.200000000000
      0.466666666667     -0.000000000000      0.200000000000
     -0.466666666667      0.000000000000      0.200000000000
     -0.400000000000      0.000000000000      0.200000000000
      0.066666666667      0.400000000000      0.200000000000
      0.133333333333      0.400000000000      0.200000000000
      0.200000000000      0.400000000000      0.200000000000
      0.266666666667      0.400000000000      0.200000000000
      0.066666666667      0.466666666667      0.200000000000
      0.133333333333      0.466666666667      0.200000000000
      0.200000000000      0.466666666667      0.200000000000
      0.266666666667      0.466666666667      0.200000000000
      0.333333333333      0.466666666667      0.200000000000
      0.400000000000      0.466666666667      0.200000000000
      0.466666666667      0.466666666667      0.200000000000
     -0.466666666667      0.466666666667      0.200000000000
      0.066666666667     -0.466666666667      0.200000000000
      0.133333333333     -0.466666666667      0.200000000000
      0.200000000000     -0.466666666667      0.200000000000
      0.266666666667     -0.466666666667      0.200000000000
      0.333333333333     -0.466666666667      0.200000000000
      0.400000000000     -0.466666666667      0.200000000000
      0.466666666667     -0.466666666667      0.200000000000
      0.066666666667     -0.400000000000      0.200000000000
      0.133333333333     -0.400000000000      0.200000000000
      0.200000000000     -0.400000000000      0.200000000000
      0.266666666667     -0.400000000000      0.200000000000
      0.333333333333     -0.400000000000      0.200000000000
      0.400000000000     -0.400000000000      0.200000000000
      0.066666666667     -0.333333333333      0.200000000000
      0.133333333333     -0.333333333333      0.200000000000
      0.200000000000     -0.333333333333      0.200000000000
      0.266666666667     -0.333333333333      0.200000000000
      0.333333333333     -0.333333333333      0.200000000000
      0.066666666667     -0.266666666667      0.200000000000
      0.133333333333     -0.266666666667      0.200000000000
      0.200000000000     -0.266666666667      0.200000000000
      0.266666666667     -0.266666666667      0.200000000000
      0.066666666667     -0.200000000000      0.200000000000
      0.133333333333     -0.200000000000      0.200000000000
      0.200000000000     -0.200000000000      0.200000000000
      0.066666666667     -0.133333333333      0.200000000000
      0.133333333333     -0.133333333333      0.200000000000
      0.066666666667     -0.066666666667      0.200000000000
      0.000000000000      0.000000000000      0.266666666667
      0.066666666667     -0.000000000000      0.266666666667
      0.133333333333     -0.000000000000      0.266666666667
      0.200000000000     -0.000000000000      0.266666666667
      0.266666666667     -0.000000000000      0.266666666667
      0.333333333333     -0.000000000000      0.266666666667
      0.400000000000     -0.000000000000      0.266666666667
      0.466666666667     -0.000000000000      0.266666666667
      0.066666666667     -0.466666666667      0.266666666667
      0.133333333333     -0.466666666667      0.266666666667
      0.200000000000     -0.466666666667      0.266666666667
      0.066666666667     -0.400000000000      0.266666666667
      0.133333333333     -0.400000000000      0.266666666667
      0.200000000000     -0.400000000000      0.266666666667
      0.266666666667     -0.400000000000      0.266666666667
      0.333333333333     -0.400000000000      0.266666666667
      0.400000000000     -0.400000000000      0.266666666667
      0.066666666667     -0.333333333333      0.266666666667
      0.133333333333     -0.333333333333      0.266666666667
      0.200000000000     -0.333333333333      0.266666666667
      0.266666666667     -0.333333333333      0.266666666667
      0.333333333333     -0.333333333333      0.266666666667
      0.066666666667     -0.266666666667      0.266666666667
      0.133333333333     -0.266666666667      0.266666666667
      0.200000000000     -0.266666666667      0.266666666667
      0.266666666667     -0.266666666667      0.266666666667
      0.066666666667     -0.200000000000      0.266666666667
      0.133333333333     -0.200000000000      0.266666666667
      0.200000000000     -0.200000000000      0.266666666667
      0.066666666667     -0.133333333333      0.266666666667
      0.133333333333     -0.133333333333      0.266666666667
      0.066666666667     -0.066666666667      0.266666666667
      0.000000000000      0.000000000000      0.333333333333
      0.066666666667     -0.000000000000      0.333333333333
      0.133333333333     -0.000000000000      0.333333333333
      0.200000000000     -0.000000000000      0.333333333333
      0.266666666667     -0.000000000000      0.333333333333
      0.333333333333     -0.000000000000      0.333333333333
      0.066666666667     -0.333333333333      0.333333333333
      0.133333333333     -0.333333333333      0.333333333333
      0.066666666667     -0.266666666667      0.333333333333
      0.133333333333     -0.266666666667      0.333333333333
      0.200000000000     -0.266666666667      0.333333333333
      0.266666666667     -0.266666666667      0.333333333333
      0.066666666667     -0.200000000000      0.333333333333
      0.133333333333     -0.200000000000      0.333333333333
      0.200000000000     -0.200000000000      0.333333333333
      0.066666666667     -0.133333333333      0.333333333333
      0.133333333333     -0.133333333333      0.333333333333
      0.066666666667     -0.066666666667      0.333333333333
      0.000000000000      0.000000000000      0.400000000000
      0.066666666667     -0.000000000000      0.400000000000
      0.133333333333     -0.000000000000      0.400000000000
      0.200000000000     -0.000000000000      0.400000000000
      0.066666666667     -0.200000000000      0.400000000000
      0.066666666667     -0.133333333333      0.400000000000
      0.133333333333     -0.133333333333      0.400000000000
      0.066666666667     -0.066666666667      0.400000000000
      0.000000000000      0.000000000000      0.466666666667
      0.066666666667     -0.000000000000      0.466666666667
     -0.066666666667      0.000000000000      0.000000000000
     -0.000000000000     -0.066666666667      0.000000000000
      0.000000000000      0.066666666667     -0.000000000000
     -0.066666666667      0.066666666667      0.066666666667
      0.066666666667     -0.066666666667     -0.066666666667
     -0.133333333333      0.000000000000     -0.000000000000
     -0.000000000000     -0.133333333333      0.000000000000
      0.000000000000      0.133333333333     -0.000000000000
     -0.133333333333      0.133333333333      0.133333333333
      0.133333333333     -0.133333333333     -0.133333333333
     -0.200000000000      0.000000000000      0.000000000000
     -0.000000000000     -0.200000000000      0.000000000000
      0.000000000000      0.200000000000     -0.000000000000
     -0.200000000000      0.200000000000      0.200000000000
      0.200000000000     -0.200000000000     -0.200000000000
     -0.266666666667      0.000000000000     -0.000000000000
     -0.000000000000     -0.266666666667      0.000000000000
      0.000000000000      0.266666666667     -0.000000000000
     -0.266666666667      0.266666666667      0.266666666667
      0.266666666667     -0.266666666667     -0.266666666667
     -0.333333333333      0.000000000000      0.000000000000
     -0.000000000000     -0.333333333333      0.000000000000
      0.000000000000      0.333333333333      0.000000000000
     -0.333333333333      0.333333333333      0.333333333333
      0.333333333333     -0.333333333333     -0.333333333333
     -0.400000000000      0.000000000000      0.000000000000
     -0.000000000000     -0.400000000000      0.000000000000
      0.000000000000      0.400000000000      0.000000000000
     -0.400000000000      0.400000000000      0.400000000000
      0.400000000000     -0.400000000000     -0.400000000000
     -0.466666666667      0.000000000000      0.000000000000
     -0.000000000000     -0.466666666667      0.000000000000
      0.000000000000      0.466666666667      0.000000000000
     -0.466666666667      0.466666666667      0.466666666667
      0.466666666667     -0.466666666667     -0.466666666667
     -0.066666666667     -0.066666666667      0.000000000000
     -0.133333333333      0.066666666667      0.066666666667
      0.133333333333     -0.066666666667     -0.066666666667
      0.066666666667     -0.133333333333     -0.066666666667
     -0.066666666667      0.133333333333      0.066666666667
     -0.133333333333     -0.066666666667     -0.000000000000
     -0.200000000000      0.066666666667      0.066666666667
      0.200000000000     -0.066666666667     -0.066666666667
      0.066666666667     -0.200000000000     -0.066666666667
     -0.066666666667      0.200000000000      0.066666666667
      0.066666666667      0.133333333333     -0.000000000000
     -0.066666666667     -0.133333333333      0.000000000000
     -0.200000000000      0.133333333333      0.133333333333
      0.200000000000     -0.133333333333     -0.133333333333
      0.133333333333     -0.200000000000     -0.133333333333
     -0.133333333333      0.200000000000      0.133333333333
     -0.200000000000     -0.066666666667     -0.000000000000
     -0.266666666667      0.066666666667      0.066666666667
      0.266666666667     -0.066666666667     -0.066666666667
      0.066666666667     -0.266666666667     -0.066666666667
     -0.066666666667      0.266666666667      0.066666666667
      0.066666666667      0.200000000000     -0.000000000000
     -0.066666666667     -0.200000000000      0.000000000000
     -0.266666666667      0.200000000000      0.200000000000
      0.266666666667     -0.200000000000     -0.200000000000
      0.200000000000     -0.266666666667     -0.200000000000
     -0.200000000000      0.266666666667      0.200000000000
     -0.266666666667     -0.066666666667     -0.000000000000
     -0.333333333333      0.066666666667      0.066666666667
      0.333333333333     -0.066666666667     -0.066666666667
      0.066666666667     -0.333333333333     -0.066666666667
     -0.066666666667      0.333333333333      0.066666666667
      0.066666666667      0.266666666667     -0.000000000000
     -0.066666666667     -0.266666666667      0.000000000000
     -0.333333333333      0.266666666667      0.266666666667
      0.333333333333     -0.266666666667     -0.266666666667
      0.266666666667     -0.333333333333     -0.266666666667
     -0.266666666667      0.333333333333      0.266666666667
     -0.333333333333     -0.066666666667      0.000000000000
     -0.400000000000      0.066666666667      0.066666666667
      0.400000000000     -0.066666666667     -0.066666666667
      0.066666666667     -0.400000000000     -0.066666666667
     -0.066666666667      0.400000000000      0.066666666667
      0.066666666667      0.333333333333      0.000000000000
     -0.066666666667     -0.333333333333      0.000000000000
     -0.400000000000      0.333333333333      0.333333333333
      0.400000000000     -0.333333333333     -0.333333333333
      0.333333333333     -0.400000000000     -0.333333333333
     -0.333333333333      0.400000000000      0.333333333333
     -0.400000000000     -0.066666666667      0.000000000000
     -0.466666666667      0.066666666667      0.066666666667
      0.466666666667     -0.066666666667     -0.066666666667
      0.066666666667     -0.466666666667     -0.066666666667
     -0.066666666667      0.466666666667      0.066666666667
      0.066666666667      0.400000000000      0.000000000000
     -0.066666666667     -0.400000000000      0.000000000000
     -0.466666666667      0.400000000000      0.400000000000
      0.466666666667     -0.400000000000     -0.400000000000
      0.400000000000     -0.466666666667     -0.400000000000
     -0.400000000000      0.466666666667      0.400000000000
     -0.466666666667     -0.066666666667      0.000000000000
     -0.533333333333      0.066666666667      0.066666666667
      0.533333333333     -0.066666666667     -0.066666666667
      0.066666666667     -0.533333333333     -0.066666666667
     -0.066666666667      0.533333333333      0.066666666667
      0.066666666667      0.466666666667      0.000000000000
     -0.066666666667     -0.466666666667     -0.000000000000
     -0.533333333333      0.466666666667      0.466666666667
      0.533333333333     -0.466666666667     -0.466666666667
      0.466666666667     -0.533333333333     -0.466666666667
     -0.466666666667      0.533333333333      0.466666666667