2_NbCl                                  
   1.0000000000000000     
     5.8333552227669871    3.3678892081432297    0.0000000000000000
    -5.8333552227669871    3.3678892081432297    0.0000000000000000
    -3.8889034818446584    0.0000000000000000   12.2795884954943020
  Nb              Cl            
     6    16
Direct
  0.0544188302950649   -0.0544188302950934   -0.2524803697986349
  0.0544188302950934    0.3613180303887933   -0.2524803697986349
 -0.3613180303887932   -0.0544188302950649   -0.2524803697986349
 -0.0544188302950649    0.0544188302950934    0.2524803697986349
 -0.0544188302950934   -0.3613180303887932    0.2524803697986349
  0.3613180303887933    0.0544188302950649    0.2524803697986349
 -0.1336844994949489    0.1336844994949491   -0.4010534984848466
  0.3808496713842102   -0.3808496713841669   -0.3631959468265930
  0.3808496713841675    0.1248952895949630   -0.3631959468265930
 -0.1248952895949624   -0.3808496713842026   -0.3631959468265930
  0.2860924680999778   -0.2860924680999777   -0.1417225957000671
 -0.2049630422473602    0.2049630422474026   -0.1192460053809968
 -0.2049630422474029   -0.2906800791137661   -0.1192460053809968
  0.2906800791137663    0.2049630422473600   -0.1192460053809968
  0.2049630422473600   -0.2049630422474029    0.1192460053809969
  0.2049630422474026    0.2906800791137663    0.1192460053809969
 -0.2906800791137661   -0.2049630422473602    0.1192460053809969
 -0.2860924680999777    0.2860924680999778    0.1417225957000671
 -0.3808496713842097    0.3808496713841675    0.3631959468265931
 -0.3808496713841669   -0.1248952895949624    0.3631959468265931
  0.1248952895949630    0.3808496713842031    0.3631959468265931
  0.1336844994949491   -0.1336844994949489    0.4010534984848467
