&CONTROL
   calculation      = 'relax'
   !restart_mode     = 'from_scratch'
   verbosity        = 'high'
   outdir           = './out'
   prefix           = 'Nb3I8'
   pseudo_dir       = '/scratch-shared/mroesner/Nb3X8_cDFPT/pp'
   tprnfor          = .true.
   tstress          = .true.
   forc_conv_thr    = 1.0D-6     ! default: 1.0D-3
/
&SYSTEM
   ibrav            = 0
   nat              = 22
   ntyp             = 2
   ecutwfc          = 100.0
   occupations      = 'smearing'
   degauss          = 0.0036749293
   smearing         = 'marzari-vanderbilt'
   input_dft        = 'pbe'
   vdw_corr         = 'grimme-d3'
   dftd3_threebody  = .false.
   !nr1              = 180
   !nr2              = 180
   !nr3              = 180
/
&ELECTRONS
    conv_thr        = 1e-12
    diago_full_acc  = .true.
/
&IONS
   ion_dynamics      = 'damp'
   !bfgs_ndim         = 5
   pot_extrapolation = 'second_order' 
   wfc_extrapolation = 'second_order'
/
&CELL
/
&FCP
/
&RISM
/
ATOMIC_SPECIES
Nb 92.90637 Nb_ONCV_PBE-1.2.upf
I 126.90447 I_ONCV_PBE-1.2.upf

K_POINTS automatic
6 6 1  0 0 0

CELL_PARAMETERS angstrom
    6.60840400789183      3.81536383287015      0.00000000000000
   -6.60840400789183      3.81536383287015      0.00000000000000
    0.00000000000000      0.00000000000000     34.36677835415921

ATOMIC_POSITIONS (angstrom)
Nb              -9.2825349526        3.8153638329       10.3235996485
Nb              -5.2713385354        1.4994985017       10.3235996485
Nb              -5.2713385354        6.1312291640       10.3235996485
Nb               4.8769328052        3.8153638329        3.4230976372
Nb               0.8657356012        6.1312296182        3.4230976372
Nb               0.8657356012        1.4994980475        3.4230976372
I                2.2028013360        3.8153638329        8.1782934700
I               -4.3506371604        3.8153638329        8.7964912210
I               -1.1288834237        1.9552834458        8.7964912210
I               -1.1288834237        5.6754442199        8.7964912210
I               -6.6084040079        3.8153638329       11.7852875026
I                0.0088009642        3.8153638329       12.2434237327
I               -3.3086024860        5.7306676079       12.2434237327
I               -3.3086024860        1.9000600578       12.2434237327
I               -4.4144042403        3.8153638329        1.5032504084
I               -1.0969998838        1.9000595345        1.5032504084
I               -1.0969998838        5.7306681312        1.5032504084
I                2.2028013360        3.8153638329        1.9613144940
I               -0.0549171946        3.8153638329        4.9503100706
I               -3.2767434067        5.6754860635        4.9503100706
I               -3.2767434067        1.9552416022        4.9503100706
I               -6.6084040079        3.8153638329        5.5684111364

